stress_XX,stress_ZZ,stress_XZ,density,x,z-5.34E+07,-2.00E+08,1.43E+07,2700,-2500,-10000-2.64E+07,-1.13E+08,5.11E+06,2700,-2500,-5000-2.40E+07,-3.14E+07,2.75E+06,2700,-2500,-0.34687-2.06E+07,-7.47E+07,-2.18E+06,2700,1219.2,-3237.4-3.31E+07,-1.65E+08,2.84E+06,2700,1938.1,-6823.3-3.21E+07,-3.39E+07,-6.38E+05,2700,3756.9,-5.731-5.29E+07,-2.29E+08,4.25E+06,2700,3765,-9999.9-2.10E+07,-8.97E+07,2.14E+06,2700,5324,-2881.7-3.39E+07,-1.81E+08,4.70E+06,2700,5601.2,-6667-2.93E+07,-3.69E+07,1.84E+06,2700,6887.2,-2.1795-2.13E+07,-1.13E+08,3.80E+06,2700,8384.7,-4076.3-2.85E+07,-3.22E+07,3.36E+06,2700,10019,0.84764-5.77E+07,-2.17E+08,5.30E+06,2700,10028,-9999.6-2.15E+07,-5.31E+07,1.47E+05,2700,11586,-1763.4-4.13E+07,-1.94E+08,5.98E+06,2700,12300,-7446.5-1.09E+07,-1.07E+08,2.87E+05,2700,12337,-3913.6-3.37E+07,-1.67E+07,7.11E+05,2700,13153,1.1544-9.51E+07,-2.44E+08,6.34E+06,2700,13159,-9999.4-2.31E+07,-4.49E+07,4.89E+05,2700,13937,-1477.2-5.99E+06,-1.45E+08,3.33E+06,2700,14053,-5418.4-6.65E+06,-9.70E+07,1.31E+06,2700,14595,-3553.8-8.45E+07,-2.34E+08,5.89E+06,2700,14652,-8735.7-3.53E+07,-1.16E+07,1.68E+06,2700,14721,0.86053-1.22E+08,-2.56E+08,3.62E+06,2700,14724,-9999.3-2.53E+07,-1.88E+08,6.40E+06,2700,15188,-6997.8-2.98E+07,-2.98E+07,1.30E+06,2700,15505,-870.11-1.13E+08,-2.49E+08,3.91E+06,2700,15796,-9241.7-1.62E+07,-6.86E+07,9.90E+05,2700,15842,-2737.9-7.08E+07,-2.23E+08,6.09E+06,2700,15844,-835523944,-1.33E+08,3.24E+06,2700,15920,-4858.6-5.55E+06,-9.60E+07,1.89E+06,2700,16088,-3560.9-1.34E+08,-2.59E+08,2.58E+06,2700,16289,-9999.2-3.62E+07,-1.03E+07,3.67E+05,2700,16289,0.30516-3.23E+07,-2.02E+08,6.95E+06,2700,16608,-7513.2-2.35E+07,-5.09E+07,2.31E+06,2700,16608,-1898.8-6.26E+06,-1.72E+08,5.71E+06,2700,16617,-6508.4-1.10E+08,-2.46E+08,3.64E+06,2700,16680,-9144.9-3.14E+07,-2.22E+07,3.83E+05,2700,16681,-831.99-7.57E+05,-1.10E+08,2.99E+06,2700,16722,-4142.33.54E+06,-1.45E+08,2.84E+06,2700,16906,-5546.2-9.18E+06,-8.66E+07,2.56E+06,2700,16910,-3300.9-6.53E+07,-2.21E+08,7.18E+06,2700,16947,-8075.2-1.58E+07,-6.97E+07,3.03E+06,2700,16948,-2459.63.76E+06,-1.26E+08,2.39E+06,2700,16986,-4703.9-1.42E+08,-2.60E+08,1.10E+06,2700,17072,-9999.1-3.62E+07,-5.69E+06,3.26E+05,2700,17074,-0.27191-1.28E+08,-2.53E+08,2.54E+06,2700,17541,-9480.6-8.46E+07,-2.30E+08,5.57E+06,2700,17541,-8356.2-4.67E+07,-2.10E+08,6.89E+06,2700,17541,-7794-1.77E+07,-1.90E+08,5.95E+06,2700,17542,-7231.93.24E+05,-1.61E+08,4.41E+06,2700,17542,-6107.94.92E+06,-1.35E+08,4.03E+06,2700,17542,-4984.69.11E+05,-1.17E+08,3.41E+06,2700,17542,-4423.4-5.05E+06,-1.01E+08,3.60E+06,2700,17542,-3861.9-1.25E+07,-7.72E+07,4.30E+06,2700,17543,-2740-1.95E+07,-5.82E+07,2.05E+06,2700,17543,-2179.4-2.61E+07,-3.97E+07,7.35E+05,2700,17543,-1618.8-3.28E+07,-1.65E+07,7.51E+05,2700,17544,-498.23-1.49E+08,-2.63E+08,2.16E+06,2700,17854,-9999-3.61E+07,-5.23E+06,3.39E+05,2700,17858,-0.97454-1.50E+07,-6.45E+07,2.75E+06,2700,18019,-2459.82.48E+06,-1.25E+08,4.64E+06,2700,18023,-4704-1.06E+08,-2.40E+08,4.19E+06,2700,18072,-8902.4-9.09E+06,-8.62E+07,3.80E+06,2700,18080,-3102.3-2.22E+07,-4.46E+07,1.93E+06,2700,18109,-1660.4-2.84E+07,-2.94E+07,1.55E+06,2700,18133,-1098.3-7.33E+06,-1.82E+08,4.63E+06,2700,18143,-67374.70E+06,-1.45E+08,4.09E+06,2700,18148,-5446.7-3.07E+07,-2.01E+08,5.28E+06,2700,18183,-7513.1-2.48E+06,-1.07E+08,4.89E+06,2700,18189,-3925.51.53E+06,-1.64E+08,4.15E+06,2700,18191,-6092-6.98E+07,-2.21E+08,5.69E+06,2700,18241,-8209.7-1.86E+07,-5.47E+07,1.94E+06,2700,18448,-2112.1-1.37E+08,-2.56E+08,2.35E+06,2700,18567,-9480.73.63E+06,-1.33E+08,4.96E+06,2700,18569,-4812.4-1.80E+07,-1.94E+08,5.07E+06,2700,18624,-7196.4-1.54E+08,-2.63E+08,1.50E+06,2700,18636,-9998.9-3.28E+07,-1.39E+07,10033,2700,18642,-499.38-5.91E+06,-9.28E+07,3.59E+06,2700,18650,-3470-1.26E+07,-7.29E+07,2.42E+06,2700,18652,-2794.8-4.43E+07,-2.08E+08,4.87E+06,2700,18716,-7730.432166,-1.14E+08,4.49E+06,2700,18798,-4152.1-1.08E+08,-2.41E+08,4.06E+06,2700,18823,-90294.36E+06,-1.50E+08,5.07E+06,2700,18912,-5418.8-2.56E+07,-3.40E+07,1.80E+06,2700,18916,-1200.2-5.22E+06,-1.81E+08,5.42E+06,2700,18922,-6743.3-7.71E+07,-2.25E+08,4.99E+06,2700,18954,-8252.9-1.40E+08,-2.56E+08,2.09E+06,2700,19079,-9481-1.78E+07,-5.76E+07,2.63E+06,2700,19082,-2187.12.18E+06,-1.64E+08,5.30E+06,2700,19092,-6022.8-8.30E+06,-8.23E+07,3.05E+06,2700,19115,-3128.1-3.06E+07,-1.61E+07,1.00E+05,2700,19192,-499.89-2.35E+07,-1.98E+08,5.14E+06,2700,19205,-7427.8-2.79E+06,-9.96E+07,2.67E+06,2700,19301,-3665.4-1.11E+08,-2.42E+08,3.00E+06,2700,19336,-8941.4-2.16E+07,-4.54E+07,1.87E+06,2700,19347,-1609.8-1.57E+08,-2.63E+08,7.65E+05,2700,19419,-9998.9-3.42E+07,-6.43E+06,4.85E+05,2700,19428,-2.78865.09E+06,-1.38E+08,4.57E+06,2700,19468,-5118.42.94E+06,-1.21E+08,3.25E+06,2700,19488,-4572.74.25E+06,-1.53E+08,5.37E+06,2700,19494,-5663.9-4.56E+07,-2.10E+08,6.12E+06,2700,19546,-7922.2-1.19E+07,-7.33E+07,2.98E+06,2700,19556,-2612.21.25E+05,-1.69E+08,6.17E+06,2700,19562,-6287.7-1.41E+08,-2.56E+08,1.83E+06,2700,19592,-9481.3-1.22E+07,-1.90E+08,5.39E+06,2700,19636,-6948.3-2.61E+07,-3.01E+07,1.25E+06,2700,19670,-1112.5-7.26E+06,-8.81E+07,2.67E+06,2700,19683,-3199.5-8.15E+07,-2.27E+08,5.04E+06,2700,19703,-8501.3-3.09E+07,-1.46E+07,1.13E+06,2700,19741,-500.425.18E+06,-1.28E+08,4.21E+06,2700,19918,-4861.6-2.15E+07,-4.35E+07,1.31E+06,2700,19941,-1662.26.05E+06,-1.43E+08,4.86E+06,2700,19951,-5376.61.60E+06,-1.13E+08,3.95E+06,2700,19963,-4334.43.16E+06,-1.59E+08,4.91E+06,2700,19965,-5928.9-2.79E+06,-1.02E+08,4.00E+06,2700,20013,-3807.6-1.82E+06,-1.76E+08,4.67E+06,2700,20069,-6471.7-1.61E+07,-5.96E+07,2.46E+06,2700,20078,-2268.1-1.12E+08,-2.41E+08,3.59E+06,2700,20105,-8908.6-5.22E+07,-2.13E+08,5.63E+06,2700,20140,-7830-1.60E+08,-2.62E+08,8.00E+05,2700,20201,-9998.8-2.02E+07,-1.95E+08,5.73E+06,2700,20207,-7246.9-3.35E+07,-5.93E+06,6.40E+05,2700,20213,-3.8349-8.22E+07,-2.27E+08,4.85E+06,2700,20235,-8379.7-8.66E+06,-8.30E+07,2.98E+06,2700,20284,-3137.8-2.53E+07,-3.19E+07,1.60E+06,2700,20290,-1157.64.56E+06,-1.52E+08,4.41E+06,2700,20457,-56742.72E+06,-1.19E+08,4.66E+06,2700,20509,-4401.4-1.92E+07,-4.72E+07,2.47E+06,2700,20531,-1839.7-5.27E+06,-1.84E+08,5.29E+06,2700,20609,-6812.3-1.40E+08,-2.54E+08,2.04E+06,2700,20618,-9482.2-1.01E+08,-2.35E+08,4.16E+06,2700,20618,-8753.11.51E+06,-1.67E+08,4.42E+06,2700,20658,-6223.7-6.50E+07,-2.18E+08,5.52E+06,2700,20659,-8037.7-1.95E+06,-9.91E+07,4.11E+06,2700,20724,-3660.15.37E+06,-1.38E+08,4.77E+06,2700,20758,-5172-2.88E+07,-2.01E+08,5.61E+06,2700,20781,-7377.8-2.98E+07,-1.57E+07,6.06E+05,2700,20840,-502.07-1.38E+07,-6.40E+07,2.48E+06,2700,20885,-2472-1.63E+08,-2.62E+08,1.71E+06,2700,20983,-9998.7-3.24E+07,-5.56E+06,2.51E+05,2700,20998,-5.0608-8.58E+07,-2.26E+08,4.49E+06,2700,21002,-8415.9-8.17E+06,-8.15E+07,2.39E+06,2700,21025,-3048.2-2.21E+07,-3.90E+07,2.00E+06,2700,21113,-1404.2-1.15E+08,-2.41E+08,3.13E+06,2700,21131,-8909.7-5.53E+07,-2.12E+08,5.82E+06,2700,21148,-7940.1-8.68E+05,-1.76E+08,5.88E+06,2700,21162,-6561.33.42E+06,-1.21E+08,3.92E+06,2700,21271,-4543.2-2.87E+07,-1.33E+07,1.08E+06,2700,21389,-502.99-3.26E+06,-9.52E+07,4.82E+06,2700,21394,-3513.3-1.65E+07,-1.91E+08,5.24E+06,2700,21401,-71174.69E+06,-1.49E+08,3.90E+06,2700,21472,-5561.7-8.92E+07,-2.28E+08,3.19E+06,2700,21535,-8503.3-1.33E+07,-6.55E+07,3.01E+06,2700,21550,-2366-7.95E+06,-8.14E+07,4.18E+06,2700,21615,-2958.9-1.47E+08,-2.56E+08,1.75E+06,2700,21643,-9483.61.69E+06,-1.66E+08,5.74E+06,2700,21645,-6162.3-6.01E+07,-2.13E+08,4.33E+06,2700,21647,-7942.2-2.40E+07,-2.82E+07,1.87E+06,2700,21663,-1077.4-2.03E+07,-4.56E+07,1.99E+06,2700,21671,-1708.2-1.66E+08,-2.62E+08,1.00E+06,2700,21765,-9998.6-3.18E+07,-5.32E+06,3.15E+05,2700,21783,-6.4451.60E+06,-1.14E+08,3.52E+06,2700,21832,-4159.7-1.19E+08,-2.43E+08,3.19E+06,2700,21900,-8944.3-2.82E+07,-1.43E+07,9.03E+05,2700,21939,-503.785.53E+06,-1.30E+08,4.49E+06,2700,21947,-4923.4-1.47E+08,-2.55E+08,2.01E+06,2700,22156,-9484.4-1.47E+07,-5.49E+07,3.43E+06,2700,22169,-2100.4-8.39E+05,-1.73E+08,5.01E+06,2700,22205,-6443.2-7.33E+06,-7.97E+07,4.29E+06,2700,22211,-3038.3-4.61E+07,-2.09E+08,4.61E+06,2700,22257,-7741.84.64E+06,-1.51E+08,5.20E+06,2700,22264,-5651.5-1.92E+06,-1.01E+08,4.00E+06,2700,22333,-3702.6-9.99E+07,-2.34E+08,3.39E+06,2700,22414,-8637.2-1.45E+07,-1.92E+08,5.18E+06,2700,22437,-7084.33.73E+06,-1.19E+08,5.28E+06,2700,22481,-4362.1-2.20E+07,-3.24E+07,1.74E+06,2700,22493,-1130-1.67E+08,-2.63E+08,3.74E+05,2700,22547,-9998.5-1.08E+07,-6.69E+07,3.95E+06,2700,22568,-2552.6-3.06E+07,-5.95E+06,-41647,2700,22568,-7.97936.34E+06,-1.34E+08,6.56E+06,2700,22616,-5067.7-1.49E+08,-2.55E+08,7.18E+05,2700,22668,-9485.4-1.52E+07,-4.92E+07,3.92E+06,2700,22722,-1971.5-7.67E+07,-2.22E+08,3.66E+06,2700,22742,-8161.1-1.19E+08,-2.39E+08,1.86E+06,2700,22869,-8963.2-3.59E+07,-2.03E+08,4.36E+06,2700,22883,-7600.41.56E+06,-1.05E+08,5.60E+06,2700,22968,-3944.5-1.84E+07,-3.87E+07,2.74E+06,2700,22981,-1469.7-2.71E+07,-1.27E+07,6.67E+05,2700,23038,-506.44-6.91E+06,-1.86E+08,4.29E+06,2700,23082,-6980.2-4.75E+06,-8.63E+07,3.94E+06,2700,23116,-3322.64.60E+06,-1.50E+08,5.51E+06,2700,23127,-5581.11.35E+06,-1.68E+08,4.55E+06,2700,23158,-6282.25.05E+06,-1.24E+08,6.27E+06,2700,23165,-4660.4-1.30E+07,-6.02E+07,2.39E+06,2700,23236,-2212.1-6.17E+07,-2.15E+08,4.10E+06,2700,23309,-8037.8-2.23E+07,-2.46E+07,1.73E+06,2700,23312,-978.02-1.69E+08,-2.64E+08,5.27E+05,2700,23329,-9998.4-1.01E+08,-2.32E+08,3.63E+06,2700,23331,-8646.8-2.94E+07,-4.30E+06,6.21E+05,2700,23353,-9.6725-1.89E+07,-4.01E+07,1.72E+06,2700,23576,-1504-2.61E+07,-1.19E+07,1.95E+06,2700,23588,-507.322.08E+06,-1.07E+08,4.90E+06,2700,23609,-3890.7-2.43E+07,-1.97E+08,5.24E+06,2700,23668,-7266.7-1.48E+08,-2.53E+08,1.49E+06,2700,23694,-9487.6-7.74E+06,-7.02E+07,3.86E+06,2700,23815,-2628.15.66E+06,-1.35E+08,4.13E+06,2700,23835,-4987.18.09E+05,-1.70E+08,4.77E+06,2700,23851,-6155.6-2.29E+07,-2.71E+07,1.48E+06,2700,23861,-988.44-6.99E+07,-2.19E+08,3.73E+06,2700,23918,-8079.3-1.32E+07,-5.34E+07,2.47E+06,2700,23977,-1937.74.80E+06,-1.51E+08,4.99E+06,2700,23999,-5569.3-2.93E+06,-8.71E+07,4.11E+06,2700,24065,-3292-1.69E+08,-2.63E+08,9.74E+05,2700,24111,-9998.3-2.53E+07,-1.76E+07,4.31E+05,2700,24137,-508.51-2.76E+07,-6.87E+06,7.40E+05,2700,24138,-11.444-1.20E+08,-2.40E+08,1.88E+06,2700,24208,-8915.74.44E+06,-1.23E+08,4.08E+06,2700,24276,-4585.1-2.98E+07,-1.99E+08,4.58E+06,2700,24313,-7427.5-4.64E+06,-1.80E+08,5.33E+06,2700,24340,-6764.31.42E+06,-1.06E+08,3.57E+06,2700,24357,-3995.5-1.99E+07,-3.30E+07,2.03E+06,2700,24410,-1083.5-6.90E+06,-7.10E+07,4.42E+06,2700,24433,-2795.52.96E+06,-1.60E+08,5.11E+06,2700,24437,-5990.9-1.49E+07,-4.61E+07,3.07E+06,2700,24538,-1804.66.03E+06,-1.41E+08,5.12E+06,2700,24558,-5331.1-9.17E+07,-2.28E+08,1.90E+06,2700,24612,-8509.9-2.45E+07,-1.58E+07,8.81E+05,2700,24686,-510.02-1.55E+08,-2.56E+08,5.55E+05,2700,24719,-9490.3-5.59E+07,-2.11E+08,3.81E+06,2700,24725,-7948.9-1.12E+07,-6.10E+07,3.35E+06,2700,24812,-23081.48E+05,-1.72E+08,6.26E+06,2700,24838,-6490.35.22E+06,-1.22E+08,5.23E+06,2700,24874,-4556.7-1.73E+08,-2.64E+08,-2.29E+05,2700,24893,-9998.2-2.63E+07,-5.80E+06,5.53E+05,2700,24923,-13.431-3.43E+06,-8.64E+07,4.01E+06,2700,24928,-3166.5-1.79E+07,-3.60E+07,2.93E+06,2700,24959,-1412.6-1.26E+08,-2.42E+08,1.06E+06,2700,24977,-8951.33.17E+06,-1.59E+08,4.96E+06,2700,25046,-5962.8-1.83E+07,-1.92E+08,4.28E+06,2700,25085,-7001.12.21E+06,-1.04E+08,5.20E+06,2700,25112,-3869.6-1.54E+08,-2.54E+08,1.31E+06,2700,25232,-9491.8-2.28E+07,-1.48E+07,1.19E+06,2700,25236,-511.446.19E+06,-1.39E+08,5.38E+06,2700,25327,-5244.9-6.50E+07,-2.14E+08,2.80E+06,2700,25416,-7959-9.30E+05,-1.76E+08,4.34E+06,2700,25458,-6507-1.12E+08,-2.36E+08,2.39E+06,2700,25491,-8644.9-1.30E+07,-4.95E+07,2.93E+06,2700,25552,-1774.5-7.09E+06,-7.09E+07,4.05E+06,2700,25612,-2628.7-1.73E+08,-2.62E+08,-3.71E+05,2700,25676,-9998.1-1.45E+06,-8.89E+07,5.29E+06,2700,25693,-3428.2-2.48E+07,-5.22E+06,57819,2700,25708,-15.649-1.55E+08,-2.55E+08,4.11E+05,2700,25744,-9493.5-1.80E+07,-2.96E+07,1.66E+06,2700,25783,-1122.54.77E+06,-1.22E+08,5.32E+06,2700,25872,-4513.7-3.79E+07,-2.02E+08,3.70E+06,2700,25907,-7572.5-1.25E+08,-2.40E+08,1.19E+06,2700,25981,-8960.94.60E+06,-1.52E+08,4.59E+06,2700,26019,-5588.69.19E+05,-1.69E+08,4.85E+06,2700,26037,-6285.5-1.74E+08,-2.63E+08,-4.08E+05,2700,26067,-9998-7.93E+07,-2.20E+08,2.89E+06,2700,26074,-8173.2-9.91E+06,-1.86E+08,5.01E+06,2700,26101,-69806.08E+06,-1.38E+08,5.00E+06,2700,26147,-5023.81.82E+06,-1.04E+08,4.74E+06,2700,26184,-3905.7-1.42E+07,-4.18E+07,1.72E+06,2700,26214,-1556.8-1.57E+08,-2.55E+08,4.06E+05,2700,26261,-9465.7-9.15E+06,-5.79E+07,3.22E+06,2700,26331,-2154.9-2.18E+07,-1.33E+07,9.02E+05,2700,26335,-514.71-3.75E+06,-7.97E+07,4.80E+06,2700,26360,-2972.84.59E+06,-1.23E+08,4.29E+06,2700,26437,-4540.4-1.76E+08,-2.63E+08,8.19E+05,2700,26458,-9998-2.38E+07,-5.25E+06,4.80E+05,2700,26494,-18.007-1.19E+08,-2.37E+08,9.48E+05,2700,26532,-8766.7-3.69E+07,-2.00E+08,3.31E+06,2700,26551,-7454.6-1.70E+07,-3.00E+07,1.94E+06,2700,26608,-1089.73.29E+06,-1.58E+08,5.72E+06,2700,26654,-5955.26.00E+06,-1.35E+08,5.34E+06,2700,26729,-5022.6-1.14E+07,-4.63E+07,2.33E+06,2700,26738,-1781.1-1.57E+08,-2.55E+08,3.45E+05,2700,26769,-9497.1-7.79E+07,-2.19E+08,1.71E+06,2700,26815,-8052.6-2.07E+07,-1.57E+07,1.44E+06,2700,26884,-516.453.69E+06,-1.11E+08,4.91E+06,2700,26889,-4074.2-5.48E+06,-1.78E+08,6.00E+06,2700,26962,-6618.51.55E+05,-9.20E+07,4.50E+06,2700,27035,-3443.3-1.49E+07,-3.46E+07,2.58E+06,2700,27156,-1419.4-5.95E+06,-6.68E+07,4.05E+06,2700,27174,-2534.4-1.72E+08,-2.64E+08,88042,2700,27240,-9997.8-9.76E+06,-5.16E+07,3.38E+06,2700,27257,-1975.3-3.59E+07,-1.97E+08,3.42E+06,2700,27261,-7500.2-2.23E+07,-6.09E+06,7.26E+05,2700,27279,-20.514-1.26E+08,-2.40E+08,23285,2700,27284,-8925.93.61E+06,-1.56E+08,5.62E+06,2700,27385,-5892.35.55E+06,-1.20E+08,6.29E+06,2700,27425,-4441.3-1.96E+07,-1.49E+07,1.00E+06,2700,27434,-518.356.45E+06,-1.36E+08,6.10E+06,2700,27625,-5172.8-7.61E+06,-1.79E+08,4.14E+06,2700,27634,-6694.5-2.39E+06,-7.91E+07,3.85E+06,2700,27671,-2975.9-9.69E+07,-2.27E+08,-1.73E+05,2700,27689,-8520.6-1.53E+07,-2.80E+07,2.44E+06,2700,27707,-1043.2-1.11E+07,-4.56E+07,3.47E+06,2700,27709,-1630.9-1.59E+08,-2.56E+08,-84283,2700,27795,-9501.2-6.56E+07,-2.12E+08,1.61E+06,2700,27803,-7959.8-3.42E+07,-1.96E+08,2.57E+06,2700,27879,-7323.2-6.67E+06,-6.37E+07,4.12E+06,2700,27903,-2355.43.27E+06,-1.07E+08,5.86E+06,2700,27916,-4059.9-1.78E+07,-1.60E+07,1.19E+06,2700,27983,-520.26-1.76E+08,-2.64E+08,-4.54E+05,2700,28022,-9997.7-1.25E+08,-2.39E+08,-67766,2700,28053,-8962.5-2.03E+07,-6.33E+06,5.74E+05,2700,28064,-23.2191.26E+06,-1.67E+08,5.57E+06,2700,28071,-6268.25.77E+06,-1.22E+08,7.03E+06,2700,28079,-4657.16.32E+05,-9.04E+07,5.43E+06,2700,28112,-3472.74.18E+06,-1.53E+08,6.04E+06,2700,28198,-5672.3-1.33E+07,-3.22E+07,2.52E+06,2700,28223,-1338.2-1.26E+07,-1.85E+08,4.49E+06,2700,28295,-6834.9-1.57E+08,-2.55E+08,1.51E+05,2700,28307,-9503.4-2.80E+06,-7.51E+07,5.17E+06,2700,28310,-2858.4-8.93E+07,-2.23E+08,-75979,2700,28320,-8160.83.69E+06,-1.04E+08,5.99E+06,2700,28503,-3927.9-1.66E+07,-1.49E+07,1.81E+06,2700,28533,-522.336.09E+06,-1.36E+08,5.97E+06,2700,28561,-5115.3-1.20E+08,-2.38E+08,-5.51E+05,2700,28567,-8656.8-7.54E+06,-5.40E+07,3.96E+06,2700,28616,-2118.4-5.41E+07,-2.05E+08,1.34E+06,2700,28683,-7741.75.13E+06,-1.19E+08,5.73E+06,2700,28743,-4477.4-1.72E+08,-2.63E+08,-1.97E+05,2700,28804,-9997.6-1.52E+08,-2.53E+08,-4.26E+05,2700,28820,-9505.7-1.78E+07,-5.28E+06,6.34E+05,2700,28848,-26.075-9.12E+07,-2.24E+08,-1.01E+06,2700,28933,-8238-5.78E+05,-8.07E+07,5.97E+06,2700,28939,-3164.8-1.82E+07,-1.87E+08,4.16E+06,2700,28952,-6886.44.81E+06,-1.48E+08,5.34E+06,2700,28982,-5574.4-1.24E+08,-2.39E+08,-2.45E+05,2700,29079,-8967.2-1.23E+07,-3.02E+07,3.07E+06,2700,29079,-1141.4-4.24E+05,-1.68E+08,5.43E+06,2700,29125,-6180.55.88E+06,-1.32E+08,5.09E+06,2700,29135,-4970.8-4.86E+06,-5.92E+07,5.15E+06,2700,29298,-2194.3-1.59E+08,-2.56E+08,-1.53E+06,2700,29332,-9508.1-4.14E+07,-1.97E+08,2.45E+06,2700,29390,-7377.95.28E+06,-1.20E+08,5.91E+06,2700,29395,-4441.1-8.43E+07,-2.19E+08,-7.32E+05,2700,29485,-8165.43.25E+06,-1.03E+08,5.92E+06,2700,29539,-3807.4-7.77E+06,-4.38E+07,3.83E+06,2700,29547,-1558.9-1.74E+08,-2.64E+08,-7.35E+05,2700,29586,-9997.5-1.01E+07,-1.77E+08,4.91E+06,2700,29586,-6706.8-1.27E+08,-2.40E+08,-1.01E+06,2700,29591,-9057.5-1.50E+07,-1.34E+07,9.87E+05,2700,29631,-526.565.72E+06,-1.35E+08,5.78E+06,2700,29713,-5097.92.90E+06,-1.57E+08,5.48E+06,2700,29791,-6064.7-1.57E+08,-2.57E+08,-1.37E+06,2700,29845,-9510.7-2.03E+06,-6.97E+07,5.45E+06,2700,29854,-2595.3-5.93E+07,-2.06E+08,8.32E+05,2700,29895,-7640.2-1.10E+07,-2.76E+07,2.72E+06,2700,29904,-1044.84.81E+06,-1.16E+08,6.40E+06,2700,30030,-4287.64.13E+05,-8.43E+07,5.69E+06,2700,30110,-3221-3.12E+07,-1.90E+08,2.33E+06,2700,30145,-7129.1-7.41E+06,-4.09E+07,3.49E+06,2700,30176,-1563.4-1.22E+07,-1.57E+07,9.99E+05,2700,30181,-528.87-8.97E+07,-2.22E+08,-1.04E+06,2700,30190,-8126.64.77E+06,-1.46E+08,6.17E+06,2700,30283,-5538.95.43E+06,-1.29E+08,6.47E+06,2700,30318,-4909.6-4.78E+06,-5.54E+07,4.86E+06,2700,30354,-2183.6-1.29E+08,-2.42E+08,-2.03E+06,2700,30361,-8940.1-1.68E+08,-2.64E+08,-7.75E+05,2700,30368,-9997.3-1.44E+07,-6.46E+06,8.64E+05,2700,30418,-32.334-5.44E+06,-1.68E+08,4.43E+06,2700,30443,-6239.6-5.58E+07,-2.04E+08,-5.11E+05,2700,30444,-7641.13.35E+06,-9.99E+07,6.55E+06,2700,30472,-3793.5-8.85E+06,-2.89E+07,2.85E+06,2700,30647,-1149.84.82E+06,-1.16E+08,7.08E+06,2700,30706,-4412.2-3.12E+07,-1.88E+08,1.01E+06,2700,30726,-7134.4-1.09E+07,-1.45E+07,2.11E+06,2700,30730,-531.29-1.06E+08,-2.30E+08,-3.25E+06,2700,30766,-8535.31.88E+06,-8.47E+07,6.59E+06,2700,30790,-3212.93.87E+06,-1.51E+08,5.95E+06,2700,30840,-5780.5-1.56E+08,-2.57E+08,-9.13E+05,2700,30870,-9516-8.07E+07,-2.15E+08,-1.52E+06,2700,30880,-7974.6-1.06E+06,-6.80E+07,5.67E+06,2700,30902,-2560.2-4.96E+06,-4.73E+07,4.74E+06,2700,30937,-1899.25.27E+06,-1.34E+08,6.47E+06,2700,30991,-5075-1.31E+08,-2.43E+08,-2.33E+06,2700,31130,-8977.6-1.70E+08,-2.64E+08,-6.39E+05,2700,31150,-9997.2-1.17E+07,-5.74E+06,1.17E+06,2700,31203,-35.705-2.16E+07,-1.80E+08,1.52E+06,2700,31211,-6781-5.07E+07,-1.98E+08,-8.87E+05,2700,31226,-7427.7-3.65E+06,-1.63E+08,4.77E+06,2700,31248,-6198.93.57E+06,-9.96E+07,7.09E+06,2700,31267,-3848.2-7.38E+06,-2.97E+07,3.86E+06,2700,31276,-1143.74.66E+06,-1.17E+08,6.96E+06,2700,31336,-4473.9-1.53E+08,-2.55E+08,-5.32E+05,2700,31383,-9518.82.52E+06,-1.50E+08,6.29E+06,2700,31433,-5645.6-7.60E+07,-2.12E+08,-1.93E+06,2700,31597,-7958.21.26E+06,-7.88E+07,7.25E+06,2700,31636,-3020.2-1.15E+08,-2.34E+08,-2.81E+06,2700,31644,-8672.5-4.23E+06,-4.11E+07,5.00E+06,2700,31705,-1579.14.80E+06,-1.30E+08,7.28E+06,2700,31776,-4926.3-1.76E+06,-5.74E+07,6.29E+06,2700,31821,-2177.7-8.61E+06,-1.40E+07,1.76E+06,2700,31828,-536.134.09E+06,-1.10E+08,6.95E+06,2700,31864,-4099.7-1.24E+07,-1.69E+08,2.70E+06,2700,31883,-6530.7-1.48E+08,-2.53E+08,-1.60E+06,2700,31896,-9521.7-1.66E+08,-2.63E+08,-9.15E+05,2700,31932,-9997.1-8.97E+06,-5.46E+06,8.59E+05,2700,31987,-39.2461.22E+06,-1.49E+08,6.10E+06,2700,32053,-5648-5.26E+06,-2.75E+07,3.60E+06,2700,32100,-1112.1-4.38E+07,-1.93E+08,-1.54E+06,2700,32105,-7210.46.02E+05,-7.20E+07,7.53E+06,2700,32145,-2689.4-1.26E+08,-2.42E+08,-2.79E+06,2700,32155,-8983.4-1.00E+08,-2.26E+08,-3.53E+06,2700,32158,-8404.33.01E+06,-9.26E+07,7.37E+06,2700,32205,-3533.2-7.70E+07,-2.13E+08,-2.82E+06,2700,32265,-7801.5-6.16E+06,-1.46E+07,2.14E+06,2700,32377,-538.75-1.51E+08,-2.55E+08,-1.82E+06,2700,32408,-9524.64.31E+06,-1.15E+08,7.59E+06,2700,32414,-4440.2-2.34E+07,-1.78E+08,1.10E+05,2700,32488,-6709.93.11E+06,-1.37E+08,7.51E+06,2700,32512,-5234.4-7.86E+06,-1.59E+08,3.80E+06,2700,32579,-5973.41.87E+06,-7.84E+07,7.82E+06,2700,32643,-3037.1-2.26E+06,-3.67E+07,4.98E+06,2700,32647,-1442.8-1.12E+08,-2.33E+08,-3.24E+06,2700,32670,-8678.42.73E+05,-6.03E+07,7.19E+06,2700,32672,-2295.5-1.65E+08,-2.64E+08,-1.36E+06,2700,32714,-9996.9-5.98E+06,-5.68E+06,1.26E+06,2700,32772,-42.9653.38E+06,-9.68E+07,8.36E+06,2700,32830,-3755.6-7.01E+07,-2.09E+08,-4.10E+06,2700,32869,-7696.3-1.50E+08,-2.56E+08,-2.26E+06,2700,32921,-9527.6-3.14E+06,-1.49E+07,2.64E+06,2700,32926,-541.48-4.19E+07,-1.90E+08,-1.99E+06,2700,32947,-7099.8-2.13E+07,-1.72E+08,5.13E+05,2700,33088,-6514.8-1.64E+08,-2.64E+08,-1.27E+06,2700,33105,-9996.94.11E+06,-1.21E+08,7.76E+06,2700,33106,-4758-1.25E+08,-2.42E+08,-3.46E+06,2700,33180,-8989.5-9.73E+07,-2.25E+08,-4.00E+06,2700,33184,-8410.4-7.35E+06,-1.52E+08,3.81E+06,2700,33295,-5703.11.98E+06,-7.34E+07,8.15E+06,2700,33371,-2875.6-1.48E+08,-2.56E+08,-2.16E+06,2700,33434,-9530.77.08E+05,-5.10E+07,7.30E+06,2700,33442,-19191.07E+06,-1.37E+08,6.96E+06,2700,33457,-5179.7-1.12E+05,-3.10E+07,5.10E+06,2700,33472,-1154.6-1.61E+08,-2.63E+08,-7.43E+05,2700,33496,-9996.8-2.21E+06,-5.36E+06,1.53E+06,2700,33556,-46.9093.42E+06,-1.07E+08,8.76E+06,2700,33598,-4177.2-2.09E+07,-1.67E+08,5.91E+05,2700,33675,-6365.1-1.13E+08,-2.35E+08,-4.18E+06,2700,33695,-8684.6-3.70E+07,-1.84E+08,-2.08E+06,2700,33697,-6969.73.00E+06,-8.59E+07,9.15E+06,2700,33770,-3320.6-6.90E+07,-2.07E+08,-4.50E+06,2700,33895,-7702.62.30E+06,-6.52E+07,8.85E+06,2700,33943,-2499.9-1.45E+08,-2.56E+08,-2.52E+06,2700,33946,-9533.9-3.71E+05,-1.30E+08,7.18E+06,2700,33973,-4989.33.64E+05,-1.40E+07,2.65E+06,2700,34024,-547.12-1.12E+07,-1.52E+08,2.60E+06,2700,34039,-5881-2.74E+07,-1.72E+08,-1.00E+06,2700,34174,-6650.22.16E+06,-4.61E+07,7.58E+06,2700,34210,-1872.4-1.57E+08,-2.63E+08,-1.47E+06,2700,34279,-9996.73.11E+06,-9.50E+07,9.43E+06,2700,34282,-3630.12.99E+06,-7.92E+07,1.01E+07,2700,34284,-3013.82.40E+06,-2.87E+07,5.20E+06,2700,34295,-1123.61.78E+06,-5.92E+06,1.48E+06,2700,34340,-51.132.73E+06,-1.11E+08,9.74E+06,2700,34382,-4352.7-4.96E+07,-1.92E+08,-4.45E+06,2700,34422,-7168-1.23E+08,-2.42E+08,-4.36E+06,2700,34463,-8920.2-1.48E+08,-2.58E+08,-2.33E+06,2700,34474,-9507.2-8.66E+07,-2.17E+08,-5.86E+06,2700,34548,-8114.83.84E+06,-1.49E+07,3.16E+06,2700,34573,-550.263.62E+06,-6.04E+07,9.36E+06,2700,34628,-2501.5-1.55E+08,-2.64E+08,-8.66E+05,2700,34670,-9996.6-4.00E+06,-1.29E+08,7.19E+06,2700,34746,-4986-1.52E+07,-1.51E+08,1.83E+06,2700,34806,-5758.14.67E+06,-3.46E+07,7.27E+06,2700,34842,-1454.72.76E+06,-9.46E+07,1.03E+07,2700,34877,-3750.8-1.41E+08,-2.56E+08,-2.73E+06,2700,34972,-9540.4-3.24E+07,-1.73E+08,-2.14E+06,2700,34993,-6509.8-1.52E+08,-2.64E+08,-8.93E+05,2700,35061,-9996.5-5.92E+07,-1.97E+08,-5.84E+06,2700,35070,-75471.39E+06,-1.10E+08,9.73E+06,2700,35113,-4308.27.16E+06,-1.60E+07,4.31E+06,2700,35121,-553.297.30E+06,-6.47E+06,1.92E+06,2700,35124,-55.698-1.12E+08,-2.36E+08,-6.16E+06,2700,35233,-8694.42.93E+06,-7.96E+07,1.07E+07,2700,35308,-3324.8-8.50E+07,-2.16E+08,-7.24E+06,2700,35320,-8096.95.84E+06,-4.69E+07,9.40E+06,2700,35389,-1746.97.44E+06,-2.85E+07,6.97E+06,2700,35392,-1129.74.10E+06,-6.44E+07,1.08E+07,2700,35449,-2435-1.39E+08,-2.55E+08,-3.48E+06,2700,35484,-9543.8-5.71E+06,-1.26E+08,7.38E+06,2700,35514,-4902.8-4.20E+07,-1.78E+08,-4.20E+06,2700,35629,-6697.1-6.46E+07,-1.99E+08,-7.02E+06,2700,35634,-7580.9-2.03E+07,-1.49E+08,1.69E+06,2700,35639,-5608.31.01E+07,-1.42E+07,4.55E+06,2700,35670,-556.5-1.20E+08,-2.43E+08,-5.83E+06,2700,35744,-9005.83.43E+05,-1.10E+08,1.01E+07,2700,35765,-4231.52.33E+06,-9.34E+07,1.10E+07,2700,35822,-3596.73.00E+06,-7.66E+07,1.16E+07,2700,35822,-3017.5-1.49E+08,-2.64E+08,-1.86E+06,2700,35843,-9996.41.37E+07,-5.76E+06,2.46E+06,2700,35909,-60.7279.14E+06,-3.40E+07,8.72E+06,2700,35939,-1461.3-1.37E+08,-2.57E+08,-4.27E+06,2700,35997,-9547.2-7.92E+07,-2.10E+08,-8.30E+06,2700,36006,-8005.8-5.47E+07,-1.89E+08,-6.61E+06,2700,36054,-7203.7-1.01E+08,-2.28E+08,-8.03E+06,2700,36113,-8567.8-1.48E+07,-1.36E+08,5.24E+06,2700,36119,-5247.25.06E+06,-6.09E+07,1.13E+07,2700,36139,-2510.8-5.49E+06,-1.19E+08,8.98E+06,2700,36215,-4683.91.55E+07,-1.43E+07,4.76E+06,2700,36219,-560-1.43E+08,-2.64E+08,-3.14E+06,2700,36234,-9996.3-3.66E+07,-1.68E+08,-2.85E+06,2700,36262,-6502.59.64E+05,-1.02E+08,1.04E+07,2700,36333,-3938.62.37E+06,-8.46E+07,1.13E+07,2700,36336,-3325-1.36E+08,-2.59E+08,-3.82E+06,2700,36430,-9550.1-2.58E+07,-1.48E+08,2.12E+06,2700,36496,-5677.3-1.18E+08,-2.43E+08,-7.45E+06,2700,36514,-8977.58.23E+06,-4.78E+07,1.06E+07,2700,36530,-1826.1-1.38E+08,-2.64E+08,-1.28E+06,2700,36626,-9996.2-1.67E+07,-1.33E+08,6.04E+06,2700,36685,-5161.52.18E+07,-5.41E+06,4.12E+06,2700,36694,-66.459-4.75E+07,-1.78E+08,-4.89E+06,2700,36708,-6873.2-9.37E+07,-2.22E+08,-1.02E+07,2700,36724,-8373-6.76E+07,-1.97E+08,-8.48E+06,2700,36744,-7451.11.33E+07,-3.00E+07,8.45E+06,2700,36764,-11744.95E+06,-6.76E+07,1.10E+07,2700,36790,-2620.4-3.39E+05,-1.01E+08,1.16E+07,2700,36948,-3898.8-1.28E+08,-2.57E+08,-5.31E+06,2700,37023,-9554.1-2.64E+07,-1.42E+08,3.57E+06,2700,37044,-55781.09E+07,-4.37E+07,1.00E+07,2700,37192,-1610.7-2.00E+07,-1.30E+08,7.54E+06,2700,37225,-5052.2-3.72E+07,-1.59E+08,-3.79E+05,2700,37246,-60963.41E+06,-8.03E+07,1.28E+07,2700,37261,-3082.2-8.70E+06,-1.16E+08,1.02E+07,2700,37261,-4433.7-5.17E+07,-1.76E+08,-4.94E+06,2700,37284,-6804.17.35E+06,-5.94E+07,1.14E+07,2700,37307,-22102.14E+07,-1.60E+07,5.99E+06,2700,37318,-568.15-8.75E+07,-2.14E+08,-1.22E+07,2700,37330,-8163.9-1.30E+08,-2.63E+08,-4.24E+06,2700,37408,-9996.1-6.85E+07,-1.93E+08,-9.34E+06,2700,37437,-7479.62.88E+07,-1.14E+07,1.10E+06,2700,37479,-73.4-1.10E+08,-2.40E+08,-1.12E+07,2700,37539,-8966.7-1.74E+06,-1.01E+08,1.24E+07,2700,37549,-3907.21.59E+07,-3.39E+07,9.88E+06,2700,37588,-1144.7-1.24E+08,-2.58E+08,-5.89E+06,2700,37603,-9534.36.85E+06,-6.90E+07,1.42E+07,2700,37688,-2667.1-4.41E+07,-1.60E+08,-2.10E+05,2700,37781,-6297.6-1.24E+08,-2.64E+08,-3.35E+06,2700,37799,-9996-1.39E+07,-1.21E+08,9.57E+06,2700,37819,-4706.52.73E+07,-1.94E+07,5.61E+06,2700,37868,-572.991.08E+07,-5.30E+07,1.09E+07,2700,37869,-2009.3-2.98E+07,-1.42E+08,5.98E+06,2700,37908,-5386.2-6.05E+07,-1.78E+08,-5.56E+06,2700,37994,-6826.9-9.81E+07,-2.26E+08,-1.53E+07,2700,38001,-8653.6-1.17E+08,-2.57E+08,-6.94E+06,2700,38048,-9561.1-8.42E+07,-2.05E+08,-1.35E+07,2700,38077,-7800.9-5.36E+06,-1.09E+08,1.24E+07,2700,38122,-40911.68E+07,-4.24E+07,1.13E+07,2700,38134,-1477.22.87E+06,-8.54E+07,1.45E+07,2700,38142,-3054-1.16E+08,-2.65E+08,-4.35E+06,2700,38191,-9995.93.70E+07,-5.71E+06,3.77E+05,2700,38266,-83.4069.03E+06,-6.78E+07,1.41E+07,2700,38267,-2452.2-4.52E+07,-1.56E+08,3.57E+06,2700,38292,-6041.4-1.06E+08,-2.41E+08,-1.48E+07,2700,38308,-9119.73.33E+07,-1.43E+07,3.86E+06,2700,38418,-578.09-1.71E+07,-1.27E+08,1.16E+07,2700,38482,-4648.9-9.81E+07,-2.27E+08,-1.75E+07,2700,38559,-8627.6-1.08E+08,-2.56E+08,-9.76E+06,2700,38561,-9564.7-5.71E+07,-1.69E+08,4.25E+05,2700,38572,-6596.2-8.05E+07,-1.95E+08,-1.21E+07,2700,38603,-7592.4-3.17E+07,-1.42E+08,1.06E+07,2700,38663,-5287.62.32E+07,-4.21E+07,5.58E+06,2700,38667,-1148.6-7.12E+06,-1.16E+08,1.33E+07,2700,38788,-4058.1-1.02E+08,-2.43E+08,-1.62E+07,2700,38821,-9114.71.28E+06,-9.41E+07,1.42E+07,2700,38827,-3324.31.30E+07,-6.91E+07,1.21E+07,2700,38855,-2261.8-9.49E+07,-2.15E+08,-1.75E+07,2700,38937,-8223.8-7.17E+07,-1.84E+08,-6.63E+06,2700,38939,-7137.6-1.02E+08,-2.64E+08,-7.19E+06,2700,38973,-9995.73.89E+07,-6.62E+06,-3.41E+06,2700,39057,-100.44-9.77E+07,-2.56E+08,-1.22E+07,2700,39074,-9568.2-1.95E+07,-1.34E+08,1.39E+07,2700,39084,-4824.3-4.46E+07,-1.54E+08,9.72E+06,2700,39094,-5788.9-8.78E+07,-1.99E+08,-1.25E+07,2700,39162,-7681.2-6.55E+07,-1.72E+08,2.12E+06,2700,39176,-6445.12.72E+07,-4.10E+07,4.32E+06,2700,39288,-1251.3-9.84E+07,-2.40E+08,-1.89E+07,2700,39334,-9030.3-8.79E+07,-2.65E+08,-7.76E+06,2700,39365,-9995.7-5.42E+06,-1.20E+08,1.50E+07,2700,39399,-3788.83.48E+06,-1.02E+08,1.40E+07,2700,39465,-31293.51E+07,-1.52E+07,-2.81E+06,2700,39523,-595.66-8.64E+07,-2.59E+08,-1.54E+07,2700,39587,-9571.6-8.53E+07,-1.92E+08,-8.11E+06,2700,39686,-7198.22.44E+07,-5.24E+07,4.01E+06,2700,39688,-1829.4-9.79E+07,-2.15E+08,-1.55E+07,2700,39705,-7909.4-2.50E+07,-1.46E+08,1.91E+07,2700,39712,-4824.5-5.83E+07,-1.63E+08,1.33E+07,2700,39732,-5968.1-7.40E+07,-2.70E+08,-8.72E+06,2700,39756,-9995.6-1.01E+08,-2.29E+08,-2.09E+07,2700,39849,-8725.73.80E+07,-5.90E+06,-3.45E+06,2700,39863,-130.61.48E+07,-8.64E+07,1.02E+07,2700,39888,-2616.1-7.59E+07,-1.77E+08,4.16E+06,2700,39895,-6590.13.61E+07,-1.46E+07,-4.87E+06,2700,39996,-1163.5-5.27E+06,-1.39E+08,1.87E+07,2700,40016,-4168.6-7.04E+07,-2.60E+08,-1.77E+07,2700,40100,-9574.9-5.05E+07,-2.62E+08,-1.22E+07,2700,40148,-9995.5-8.57E+07,-2.70E+08,-1.88E+07,2700,40193,-9140.2-1.21E+08,-2.46E+08,-3.97E+07,2700,40289,-8710.3-4.95E+07,-1.64E+08,2.48E+07,2700,40309,-5476.8-7.69E+07,-1.75E+08,1.30E+07,2700,40329,-6232.9-9.66E+07,-1.96E+08,-6.96E+06,2700,40375,-7018.42.35E+07,-6.25E+07,-4.60E+06,2700,40376,-2274.3-7.59E+07,-3.05E+08,-5.73E+06,2700,40419,-9564.3-1.16E+08,-2.19E+08,-1.14E+07,2700,40443,-82903.01E+07,-3.82E+07,-5.87E+06,2700,40503,-1703.5-1.52E+07,-1.52E+08,2.55E+07,2700,40515,-4691.36.73E+06,-1.17E+08,1.35E+07,2700,40532,-3567.8-4.69E+07,-2.85E+08,4.58E+06,2700,40542,-9995.4-8.56E+07,-2.08E+08,-4.51E+06,2700,40601,-7644.2-8.28E+07,-2.70E+08,6.77E+05,2700,40602,-9314.1-7.00E+07,-2.38E+08,-2.95E+07,2700,40617,-9005.53.49E+07,-1.82E+07,-1.03E+05,2700,40655,-641.832.19E+07,-7.03E+07,-2.06E+06,2700,40682,-2779.9-7.40E+07,-2.71E+08,-1.67E+07,2700,40737,-9592.4-1.02E+08,-1.88E+08,4.40E+06,2700,40766,-6586.7-7.85E+07,-1.75E+08,2.52E+07,2700,40846,-6010.2-5.85E+07,-1.94E+08,-4.08E+06,2700,40920,-9250.43.14E+07,-3.50E+07,1.32E+06,2700,40920,-1086-4.12E+07,-1.63E+08,3.04E+07,2700,40933,-5387.7-3.49E+07,-2.54E+08,1.38E+07,2700,40952,-9995.2-1.07E+08,-2.14E+08,-1.27E+07,2700,40959,-7153.7-1.06E+08,-2.55E+08,-2.83E+07,2700,41022,-8601.22.57E+07,-5.03E+07,-6.06E+06,2700,41080,-2216.2-2.56E+06,-1.36E+08,2.10E+07,2700,41127,-4538.5-1.31E+08,-2.42E+08,-4.38E+07,2700,41136,-8040.1-6.70E+07,-3.09E+08,-7.56E+06,2700,41141,-9568.11.94E+07,-8.10E+07,-6.90E+06,2700,41214,-3384.33.36E+07,-2.17E+07,-4.04E+05,2700,41235,-672.95-1.25E+08,-1.96E+08,4.04E+06,2700,41315,-6391.62.90E+07,-3.93E+07,-5.64E+05,2700,41339,-1411.9-5.38E+07,-2.70E+08,-3.89E+06,2700,41397,-9035.8-3.74E+07,-2.83E+08,-1.39E+06,2700,41413,-9994.2-8.95E+07,-2.01E+08,-1.38E+07,2700,41432,-7701.7-7.14E+07,-1.83E+08,3.44E+07,2700,41434,-5768.31.62E+07,-9.27E+07,-1.61E+06,2700,41490,-4027.23.68E+07,-6.98E+06,-2.16E+06,2700,41511,-219.49-1.32E+08,-1.97E+08,4.63E+05,2700,41526,-6958.4-1.50E+07,-1.57E+08,1.57E+07,2700,41566,-5080-8.65E+07,-2.22E+08,-7.63E+06,2700,41668,-7320.72.21E+07,-6.42E+07,3.42E+05,2700,41688,-2568.2-5.14E+07,-2.63E+08,-1.30E+07,2700,41694,-9521.3-1.56E+08,-2.75E+08,-4.96E+07,2700,41696,-8198.92.37E+07,-5.42E+07,4.98E+06,2700,41703,-2031.6-1.46E+08,-2.01E+08,2.34E+06,2700,41736,-6636.98.13E+06,-1.18E+08,-4.10E+05,2700,41758,-4537.43.57E+07,-8.72E+06,-5.55E+06,2700,41809,-711.83-9.88E+07,-2.30E+08,6.12E+06,2700,41879,-7646.1-1.32E+08,-1.91E+08,3.21E+07,2700,41892,-6208-1.32E+08,-2.17E+08,-5.12E+06,2700,41898,-6985.1-6.53E+07,-1.74E+08,-1.29E+07,2700,41905,-8718.72.18E+07,-7.33E+07,-1.23E+06,2700,41925,-3460.43.23E+07,-2.38E+07,-3.67E+06,2700,41966,-1269.1-3.95E+07,-1.24E+08,-1.74E+07,2700,41977,-9152.1-1.40E+08,-2.65E+08,3.27E+06,2700,42034,-8202.1-9.57E+07,-2.73E+08,-1.61E+07,2700,42058,-7322.2-5.87E+07,-1.68E+08,3.00E+07,2700,42084,-8906.5-4.07E+07,-1.79E+08,2.21E+07,2700,42092,-5546.9-1.75E+08,-2.32E+08,-7.07E+06,2700,42117,-6594.9-1.07E+08,-2.27E+08,6.13E+07,2700,42161,-8502.62.15E+07,-6.24E+07,1.38E+06,2700,42182,-2317.61.48E+07,-9.90E+07,-3.52E+06,2700,42183,-4121.82.99E+07,-3.29E+07,-3.25E+06,2700,42213,-1800.2-8.17E+07,-2.08E+08,2.92E+07,2700,42246,-8903.4-1.27E+08,-2.95E+08,-1.86E+07,2700,42269,-7015.8-7.88E+07,-2.64E+08,-5.47E+06,2700,42269,-76897.91E+06,-1.20E+08,-5.31E+06,2700,42316,-4695.9-1.65E+08,-2.30E+08,2.59E+07,2700,42338,-62073.69E+07,-5.72E+06,-1.72E+06,2700,42343,-280.76-1.18E+08,-2.68E+08,5.14E+07,2700,42370,-8800.1-1.16E+08,-3.64E+08,4.87E+07,2700,42379,-8252.7-7.78E+07,-2.98E+08,1.66E+07,2700,42399,-9110-1.33E+08,-3.99E+08,3.10E+07,2700,42417,-8889.5-9.83E+07,-3.32E+08,-1.99E+07,2700,42429,-7354.81.81E+07,-8.80E+07,8.20E+05,2700,42435,-3142.1-1.30E+08,-3.55E+08,5.15E+07,2700,42526,-8684.5-1.14E+08,-3.18E+08,5.00E+07,2700,42527,-8458.1-8.19E+07,-2.86E+08,3.85E+07,2700,42555,-7959.71.37E+07,-1.10E+08,-8.69E+05,2700,42609,-3705.93.35E+07,-1.74E+07,-2.67E+06,2700,42631,-1323.6-1.56E+08,-2.47E+08,4.91E+07,2700,42634,-8496-1.33E+08,-3.12E+08,4.95E+07,2700,42655,-8607.9-9.56E+07,-3.56E+08,2.63E+07,2700,42656,-69392.23E+07,-6.02E+07,-3.48E+06,2700,42660,-2610.1-7.41E+07,-2.87E+08,-9.97E+06,2700,42661,-7651.9-1.72E+08,-2.68E+08,-1.58E+07,2700,42663,-6535.5-1.32E+08,-2.12E+08,-3.28E+07,2700,42677,-5916.76.55E+06,-1.19E+08,-1.02E+07,2700,42687,-5258.8-1.02E+08,-3.15E+08,3.58E+07,2700,42691,-8272.1-1.71E+08,-2.96E+08,6.22E+07,2700,42707,-8581.8-1.19E+08,-3.41E+08,3.16E+07,2700,42734,-8688.1-1.73E+08,-3.44E+08,3.92E+07,2700,42741,-8537.5-1.06E+08,-3.09E+08,1.81E+07,2700,42748,-8431.5-1.15E+08,-3.93E+08,3.08E+07,2700,42773,-8860.3-1.16E+08,-2.75E+08,1.71E+07,2700,42797,-7306.1-7.03E+07,-3.42E+08,3.91E+07,2700,42830,-9294.7-1.33E+08,-3.73E+08,2.13E+07,2700,42836,-8566.4-1.24E+08,-3.75E+08,1.70E+07,2700,42844,-8519-1.07E+08,-3.23E+08,6.52E+06,2700,42852,-8343.7-1.12E+08,-3.29E+08,-4.96E+05,2700,42887,-8425.4-5.89E+07,-3.08E+08,4.11E+07,2700,42922,-9986-1.00E+08,-2.78E+08,1.68E+06,2700,42913,-8153.6-6.19E+07,-2.42E+08,6.95E+06,2700,42935,-7893-1.19E+08,-3.68E+08,-4.04E+06,2700,42954,-8669.83.54E+07,-1.62E+07,-1.04E+05,2700,42975,-789.13-1.14E+08,-3.22E+08,-2.29E+07,2700,42984,-8557-1.07E+08,-2.99E+08,-3.07E+07,2700,43008,-8409.17.29E+06,-1.24E+08,-7.25E+06,2700,43008,-4660.6-4.98E+07,-1.74E+08,-4.58E+07,2700,43023,-5770.41.84E+07,-7.93E+07,-2.95E+06,2700,43031,-3288.5-6.86E+07,-2.04E+08,-1.25E+07,2700,43039,-7027.9-1.24E+08,-3.47E+08,-4.38E+07,2700,43048,-8459.7-8.28E+07,-3.05E+08,2.44E+07,2700,43093,-8920.6-64145,-1.50E+08,-7.08E+06,2700,43101,-5146.6-9.32E+07,-2.80E+08,-9.29E+06,2700,43112,-80792.61E+07,-4.66E+07,-4.87E+06,2700,43117,-2224.3-8.70E+07,-2.16E+08,2.81E+07,2700,43124,-7670.6-1.14E+08,-3.36E+08,-1.50E+07,2700,43148,-8164.7-7.69E+07,-1.60E+08,3.01E+07,2700,43151,-7348.1-9.45E+07,-2.80E+08,4.88E+06,2700,43156,-8648.83.75E+07,-6.97E+06,-3.38E+06,2700,43156,-322.22-1.96E+08,-1.94E+08,-6.91E+07,2700,43172,-6241.2-1.03E+08,-2.92E+08,-7.80E+06,2700,43189,-8371.72.89E+07,-4.00E+07,-6.56E+05,2700,43212,-1664.8-9.62E+07,-2.64E+08,7.77E+06,2700,43266,-8197.42.51E+07,-5.21E+07,-6.10E+06,2700,43276,-2776.2-5.97E+07,-1.43E+08,-1.24E+07,2700,43279,-6747.7-3.29E+07,-1.81E+08,-3.14E+07,2700,43300,-5521.5-8.89E+07,-2.74E+08,-3.58E+06,2700,43312,-7878.7-8.53E+07,-2.51E+08,2.03E+07,2700,43333,-8547.5-9.22E+07,-2.38E+08,7.38E+05,2700,43348,-8259.6-8.63E+07,-2.44E+08,-7.70E+06,2700,43373,-8046.5-1.50E+08,-1.91E+08,-8.11E+07,2700,43374,-5905.4-9.89E+07,-2.42E+08,7.47E+07,2700,43394,-9307.9-9.52E+07,-2.64E+08,6.68E+06,2700,43390,-8340.28.10E+06,-1.25E+08,-6.16E+06,2700,43411,-4811.5-9.48E+07,-2.61E+08,-9.98E+06,2700,43422,-7133.4-9.14E+07,-2.75E+08,-1.21E+07,2700,43430,-7736.2-9.40E+07,-2.73E+08,1.32E+06,2700,43455,-7519.9-6.86E+07,-2.37E+08,4.35E+07,2700,43522,-8823.3-2.98E+07,-1.47E+08,-1.82E+07,2700,43521,-5224.59.27E+06,-1.13E+08,-9.59E+06,2700,43529,-4218.9-1.58E+08,-1.52E+08,-3.26E+07,2700,43541,-6260.23.62E+07,-1.25E+07,-2.58E+06,2700,43544,-814.75-9.24E+07,-2.79E+08,-3.02E+06,2700,43559,-7910.2-8.73E+07,-2.68E+08,7.68E+06,2700,43595,-8083-2.24E+08,-2.84E+08,1.24E+08,2700,43609,-9978.5-8.75E+07,-2.61E+08,2.46E+07,2700,43609,-8230.4-1.07E+08,-2.08E+08,-1.38E+07,2700,43630,-6630.2-8.86E+07,-2.54E+08,-1.71E+06,2700,43636,-7637.5-9.05E+07,-2.38E+08,-6.31E+06,2700,43653,-7726-9.42E+07,-1.76E+08,-6.18E+07,2700,43654,-5649.2-8.30E+07,-2.49E+08,-1.00E+07,2700,43661,-7502.91.95E+07,-7.50E+07,-2.84E+06,2700,43662,-3226.2-7.62E+07,-2.21E+08,8.03E+06,2700,43706,-7849.4-8.54E+07,-2.20E+08,-7.46E+06,2700,43751,-7756.8-9.12E+07,-2.13E+08,-7.07E+06,2700,43770,-6939.9-9.12E+07,-2.35E+08,-2.28E+06,2700,43782,-7598.7-6.83E+07,-2.12E+08,9.78E+06,2700,43801,-8093.23.22E+07,-2.82E+07,-3.87E+06,2700,43802,-1384.7-8.15E+07,-2.19E+08,1.30E+07,2700,43803,-7716.7-1.34E+07,-1.38E+08,-2.01E+07,2700,43807,-4987.5-1.08E+08,-1.75E+08,-7.54E+07,2700,43809,-5991.5-8.64E+07,-2.29E+08,-1.93E+07,2700,43815,-7207.7-5.79E+07,-2.06E+08,3.94E+07,2700,43830,-8507.1-7.57E+07,-2.04E+08,9.59E+06,2700,43853,-7684.4-6.51E+07,-1.40E+08,-2.95E+07,2700,43870,-5350.8-7.54E+07,-2.28E+08,3.27E+06,2700,43901,-7767.7-8.29E+07,-2.01E+08,-6.29E+06,2700,43902,-7512-1.25E+08,-2.09E+08,-3.01E+07,2700,43908,-6355.8-8.40E+07,-2.06E+08,1.06E+07,2700,43918,-7618.3-6.73E+07,-1.96E+08,-8.20E+06,2700,43926,-7647.8-6.52E+07,-2.20E+08,1.74E+07,2700,43935,-8145.2-8.73E+07,-1.97E+08,8.67E+06,2700,43945,-7546.9-7.09E+07,-2.23E+08,7.30E+06,2700,43958,-7978.1-8.00E+07,-2.37E+08,-2.24E+07,2700,43974,-7685.3-7.69E+07,-2.05E+08,-1.02E+07,2700,43982,-7356.33.65E+07,-7.12E+06,-2.25E+06,2700,43988,-379.96-8.26E+07,-2.34E+08,-1.33E+07,2700,43997,-7609.2-6.57E+07,-1.93E+08,-1.18E+07,2700,43998,-7514.9-7.67E+07,-2.02E+08,-7.83E+06,2700,44004,-7428-7.82E+07,-2.16E+08,-3.08E+07,2700,44007,-7562.92.28E+07,-6.44E+07,1.76E+05,2700,44022,-2413.5-1.12E+08,-1.74E+08,-6.35E+07,2700,44028,-5683.85.82E+06,-1.27E+08,-2.67E+06,2700,44040,-4636.3-7.24E+07,-2.16E+08,-3.17E+07,2700,44051,-6693.9-1.69E+08,-1.29E+08,4.02E+07,2700,44063,-9974.5-6.38E+07,-1.98E+08,9.75E+06,2700,44071,-7836.8-8.20E+07,-2.08E+08,-1.01E+07,2700,44082,-7473.8-9.16E+07,-2.28E+08,-1.49E+06,2700,44084,-7231.9-7.09E+07,-1.88E+08,-3.03E+06,2700,44086,-7034.1-8.72E+07,-2.19E+08,-7.83E+06,2700,44113,-7578.33.61E+07,-9.21E+06,-3.49E+06,2700,44120,-850.97-8.26E+07,-2.28E+08,-2.13E+07,2700,44121,-7379-8.66E+07,-2.09E+08,9.27E+05,2700,44137,-7509.8-6.31E+07,-1.96E+08,2.44E+05,2700,44164,-7405.1-1.01E+08,-2.51E+08,-1.94E+07,2700,44180,-7207.52.97E+07,-3.62E+07,-2.68E+06,2700,44186,-1846.71.45E+07,-9.28E+07,-6.01E+06,2700,44205,-2946.6-5.30E+07,-1.97E+08,3.26E+07,2700,44218,-8074.6-9.13E+07,-2.26E+08,-3.98E+06,2700,44209,-7297.6-1.16E+08,-1.51E+08,-6.79E+07,2700,44216,-5397.3-6.37E+07,-2.15E+08,-1.59E+07,2700,44227,-6868.71.14E+07,-9.70E+07,1.33E+06,2700,44228,-3930.8-8.37E+07,-2.51E+08,1.39E+06,2700,44235,-7441.9-7.58E+07,-2.20E+08,2.09E+06,2700,44243,-7346.7-6.34E+07,-1.90E+08,1.60E+07,2700,44251,-7599-4.11E+07,-1.41E+08,-9.19E+06,2700,44258,-5002.1-9.84E+07,-2.04E+08,-5.63E+07,2700,44277,-6279.6-1.05E+08,-2.59E+08,-5.52E+06,2700,44281,-7243.4-1.02E+08,-2.46E+08,-1.79E+07,2700,44286,-7187.64.84E+06,-1.12E+08,9.10E+06,2700,44285,-4319.9-7.80E+07,-2.23E+08,-1.84E+07,2700,44321,-7089.4-7.29E+07,-2.08E+08,1.48E+07,2700,44337,-7446.7-7.42E+07,-1.83E+08,6.61E+06,2700,44346,-7287.1-7.84E+07,-2.19E+08,-2.79E+07,2700,44370,-7121.5-5.41E+07,-1.95E+08,4.20E+07,2700,44398,-8668.1-8.12E+07,-2.27E+08,-2.17E+07,2700,44409,-7030.2-6.38E+07,-1.85E+08,-5.80E+06,2700,44429,-7191.2-1.08E+08,-2.30E+08,-7.17E+07,2700,44465,-5778.6-4.15E+07,-1.60E+08,3.46E+07,2700,44484,-7939.2-7.61E+06,-1.26E+08,2.41E+06,2700,44471,-4660.2-2.95E+07,-1.79E+08,5.30E+07,2700,44489,-8306.9-6.20E+07,-1.86E+08,1.76E+07,2700,44503,-7322.7-4.88E+07,-1.47E+08,1.03E+06,2700,44504,-7189.2-5.37E+07,-1.89E+08,-1.63E+07,2700,44513,-6876.8-5.93E+07,-1.73E+08,-7.29E+06,2700,44528,-7066.4-5.22E+07,-1.68E+08,3.21E+07,2700,44548,-7650.1-9.54E+07,-1.93E+08,-7.28E+07,2700,44543,-5286.9-5.90E+07,-1.73E+08,3.53E+06,2700,44547,-7150-6.16E+07,-2.01E+08,-1.24E+07,2700,44561,-6579.5-5.20E+07,-1.62E+08,-1.45E+06,2700,44591,-6936.4-5.15E+07,-1.62E+08,4.95E+06,2700,44612,-7206.6-6.31E+07,-1.94E+08,5.57E+06,2700,44614,-7114.51.62E+07,-8.68E+07,-7.55E+05,2700,44634,-3359.5-8.32E+07,-2.01E+08,-2.34E+07,2700,44636,-6244.3-1.47E+08,-2.80E+08,1.32E+07,2700,44665,-9974.83.11E+07,-2.84E+07,-5.47E+06,2700,44665,-1467.3-5.36E+07,-1.57E+08,8.51E+05,2700,44686,-7118.3-4.55E+07,-1.44E+08,5.42E+06,2700,44685,-70121.78E+07,-5.96E+07,6.18E+06,2700,44699,-4340.62.54E+07,-5.03E+07,-8.95E+06,2700,44711,-2286.4-3.10E+07,-7.32E+07,5.32E+06,2700,44722,-7055.8-5.09E+07,-1.62E+08,8.01E+06,2700,44743,-6811.8-6.13E+07,-1.93E+08,1.06E+07,2700,44768,-6934.9-5.61E+07,-1.66E+08,8.53E+06,2700,44777,-7041.3-3.96E+07,-1.88E+08,2.74E+07,2700,44797,-7469.23.57E+07,-7.36E+06,-3.25E+06,2700,44825,-441.11-4.65E+07,-1.77E+08,1.53E+07,2700,44864,-7180.1-5.61E+07,-1.77E+08,7.84E+06,2700,44875,-7068.1-7.29E+07,-1.92E+08,-1.98E+07,2700,44881,-6243.7-5.88E+07,-1.85E+08,1.06E+07,2700,44892,-6982.1-4.92E+07,-1.50E+08,9.11E+06,2700,44886,-6621.9-6.62E+07,-1.57E+08,-6.50E+07,2700,44893,-4710.5-6.37E+07,-1.52E+08,-4.11E+07,2700,44924,-5939.3-4.96E+07,-1.59E+08,7.15E+06,2700,44968,-6792.5-4.53E+07,-1.45E+08,-1.70E+06,2700,44977,-6419.3-3.65E+07,-2.34E+08,4.70E+07,2700,44995,-8110.7-1.05E+07,-8.87E+07,-1.78E+07,2700,44983,-4057.7-4.54E+07,-1.76E+08,1.41E+07,2700,45006,-7018.6-6.00E+07,-1.83E+08,1.18E+07,2700,45005,-6943.7-9.63E+07,-2.80E+08,4.48E+07,2700,45096,-8645.2-6.47E+07,-1.43E+08,-2.40E+07,2700,45107,-6139.1-1.70E+07,-2.06E+08,1.01E+07,2700,45145,-7591.9-4.10E+07,-1.72E+08,-96495,2700,45147,-6979-4.47E+07,-1.38E+08,-6.06E+06,2700,45146,-6854.9-2.59E+07,-1.96E+08,1.54E+07,2700,45151,-7233.42.36E+07,-5.60E+07,-2.09E+06,2700,45147,-2742-4.26E+07,-1.17E+08,-6.63E+06,2700,45172,-6253-4.47E+07,-1.38E+08,-3.97E+07,2700,45180,-5603.5-8.94E+07,-1.72E+08,-7.53E+07,2700,45197,-5269.9-4.96E+07,-1.55E+08,-3.02E+06,2700,45247,-6685.3-4.35E+07,-1.43E+08,-2.39E+06,2700,45286,-6783.7-2.04E+08,-2.63E+08,3.08E+06,2700,45303,-9975.8-9.40E+07,-1.62E+08,-8.83E+07,2700,45297,-4654.43.19E+07,-2.29E+07,-4.59E+06,2700,45302,-936.57-4.14E+07,-1.00E+08,-6.38E+06,2700,45308,-6101.3-4.55E+07,-1.60E+08,-3.80E+06,2700,45364,-7073.1-4.91E+07,-1.26E+08,-1.55E+07,2700,45385,-5821.32.55E+07,-4.73E+07,-3.01E+06,2700,45400,-2197.11.70E+07,-6.25E+07,5.82E+06,2700,45404,-3407.8-6.57E+07,-1.13E+08,1.40E+07,2700,45477,-6879.7-3.82E+07,-1.24E+08,2.99E+06,2700,45514,-6071.12.92E+07,-3.10E+07,-5.65E+06,2700,45532,-1516.3-2.58E+07,-1.15E+08,4.55E+06,2700,45570,-6645.3-3.43E+07,-1.10E+08,-1.03E+07,2700,45639,-5425.73.54E+07,-7.67E+06,-2.67E+06,2700,45660,-501.73-5.31E+07,-2.12E+08,2.57E+07,2700,45679,-8258.4-3.53E+07,-1.18E+08,-6.35E+05,2700,45718,-5692.7-3.48E+07,-1.35E+08,-1.02E+07,2700,45753,-6356.7-6.51E+07,-1.55E+08,-3.82E+07,2700,45753,-4813.1-6.85E+07,-1.60E+08,-6.42E+07,2700,45775,-4224.4-5.62E+07,-1.65E+08,-7.38E+06,2700,45797,-7170.5-6.73E+07,-2.15E+08,-1.51E+07,2700,45808,-6853.62.54E+07,-5.24E+07,1.36E+06,2700,45827,-2802.73.03E+07,-1.71E+07,-8.07E+06,2700,45852,-982.51-1.67E+08,-2.23E+08,2.87E+07,2700,45900,-9976.8-4.68E+07,-1.33E+08,8.63E+05,2700,45935,-6163-3.25E+07,-1.10E+08,-5.63E+05,2700,45954,-5502.8-2.69E+07,-1.03E+08,4.62E+05,2700,45955,-5219.3-3.83E+07,-1.27E+08,-2.65E+06,2700,45998,-5953.5-1.16E+07,-1.30E+08,-3.13E+07,2700,46000,-3368.3-2.76E+07,-9.63E+07,-3.51E+05,2700,46078,-5381.3-3.53E+07,-1.75E+08,3.21E+06,2700,46126,-6885.7-3.67E+07,-1.21E+08,-1.31E+06,2700,46127,-5787.63.23E+07,-1.62E+07,87488,2700,46120,-1835.3-4.64E+07,-1.46E+08,-2.30E+07,2700,46178,-4640.3-3.54E+07,-1.14E+08,-7.71E+06,2700,46216,-5416.6-3.14E+07,-1.05E+08,-4.90E+06,2700,46221,-5487.3-2.50E+07,-9.90E+07,4.17E+06,2700,46223,-4830.2-3.15E+07,-1.51E+08,-1.00E+07,2700,46257,-6478.3-5.08E+07,-1.53E+08,-9.67E+06,2700,46350,-6045.9-2.90E+07,-9.82E+07,-4.63E+06,2700,46365,-5123-3.45E+07,-1.12E+08,-7.37E+06,2700,46398,-5463.6-3.22E+07,-1.08E+08,-5.11E+06,2700,46394,-5253.9-5.03E+07,-1.02E+08,-2.35E+07,2700,46418,-4271.92.74E+07,-1.33E+07,32301,2700,46467,-1043.9-8.88E+06,-1.33E+08,2.67E+07,2700,46485,-7250-3.76E+07,-1.12E+08,-4.80E+05,2700,46499,-5637.2-5.08E+07,-1.17E+08,-4.85E+07,2700,46501,-3701.43.38E+07,5.20E+06,-8.82E+05,2700,46507,-597-2.58E+07,-8.13E+07,-3.48E+05,2700,46523,-4715.6-3.31E+07,-1.11E+08,-2.57E+06,2700,46552,-5418.7-6.97E+06,-1.18E+08,2.54E+07,2700,46617,-6749.4-3.43E+07,-1.14E+08,-4.63E+06,2700,46608,-5152.3-1.24E+07,-1.06E+08,-3.98E+07,2700,46609,-3016.2-1.63E+08,-1.95E+08,-4.97E+06,2700,46660,-9978.31.90E+07,-6.10E+07,-1.22E+07,2700,46657,-2153.1-3.29E+07,-1.10E+08,-3.05E+06,2700,46680,-4965.6-3.08E+07,-8.94E+07,-6.42E+06,2700,46710,-4598.53.24E+07,-1.03E+07,5.88E+06,2700,46726,-1553.8-4.78E+07,-1.24E+08,-1.21E+07,2700,46765,-5489.6-5.35E+07,-1.41E+08,-9.86E+06,2700,46769,-6000.4-3.95E+07,-6.96E+07,-2.36E+06,2700,46775,-4221.4-4.24E+07,-8.89E+07,-4.82E+06,2700,46786,-4363.7-3.40E+07,-1.06E+08,-2.38E+05,2700,46806,-4869.5-2.49E+07,-1.14E+08,-1.58E+05,2700,46826,-6355.4-3.16E+07,-9.81E+07,-1.73E+06,2700,46869,-4730-3.77E+07,-1.08E+08,-1.12E+07,2700,46893,-5266.1-3.35E+07,-1.02E+08,-8.77E+06,2700,46923,-5122.9-2.39E+07,-5.99E+07,-2.10E+07,2700,46921,-3881.2-2.61E+07,-8.65E+07,-5.53E+06,2700,46952,-4643.9-2.71E+07,-7.59E+07,-5.03E+06,2700,46963,-4894-3.23E+07,-8.98E+07,-5.27E+06,2700,46998,-4283.5-3.29E+07,-1.04E+08,-9.66E+06,2700,47042,-4857.4-4.05E+07,-1.15E+08,-1.67E+07,2700,47082,-5000.5-2.79E+07,-9.21E+07,-7.06E+06,2700,47077,-4462.9-9.58E+07,-2.08E+08,-1.88E+06,2700,47105,-8426.33.30E+07,9.64E+06,4.67E+06,2700,47129,-1056.4-2.50E+07,-8.68E+07,-4.67E+06,2700,47135,-4742.2-3.79E+07,-7.77E+07,-3.88E+07,2700,47136,-3580.6-2.35E+07,-9.26E+07,6.67E+06,2700,47167,-5965.7-3.33E+07,-1.11E+08,-6.53E+06,2700,47205,-4821.3-3.51E+07,-1.08E+08,-9.94E+06,2700,47217,-4935-3.97E+07,-1.18E+08,-1.25E+07,2700,47242,-5280.71.79E+07,-4.57E+07,-1.07E+07,2700,47244,-1931.6-2.71E+07,-9.24E+07,-5.43E+06,2700,47256,-4563.2-2.71E+07,-9.27E+07,-5.76E+06,2700,47278,-4718.6-3.32E+07,-7.82E+07,-2.09E+07,2700,47306,-3901.3-1.85E+07,-1.00E+08,1.83E+07,2700,47330,-6438.8-9.42E+06,-6.34E+07,-3.24E+07,2700,47346,-2995.72.55E+07,-1.16E+07,-1.31E+07,2700,47353,-617.94-2.26E+07,-6.53E+07,-1.11E+07,2700,47365,-4062.5-2.59E+07,-8.11E+07,-1.01E+07,2700,47383,-4861.6-2.61E+07,-8.69E+07,-8.36E+06,2700,47439,-4675-2.25E+08,-2.30E+08,-4.78E+07,2700,47442,-99801.90E+06,-1.27E+08,7.73E+05,2700,47490,-6897.1-1.63E+07,-7.65E+07,4.06E+06,2700,47536,-5580.6-2.18E+07,-7.17E+07,-7.48E+06,2700,47536,-4256.5-3.15E+07,-9.18E+07,-6.43E+06,2700,47553,-4784.2-3.90E+07,-9.62E+07,-1.03E+07,2700,47596,-5071.8-1.39E+07,-1.58E+08,6.70E+06,2700,47603,-7440.2-2.75E+07,-8.00E+07,-1.07E+07,2700,47617,-4113.2-3.10E+07,-5.58E+07,-2.15E+07,2700,47651,-3330.4-4.21E+07,-1.43E+08,5.70E+06,2700,47680,-6060.71.91E+07,-2.79E+07,-1.56E+07,2700,47669,-1062.9-2.08E+07,-5.91E+07,-5.95E+06,2700,47722,-3923.6-4.08E+06,-3.63E+07,-1.83E+07,2700,47774,-2396.8-2.43E+07,-7.08E+07,-2.86E+06,2700,47823,-4602.3-2.76E+07,-1.15E+08,-4.92E+06,2700,47841,-6560.7-1.73E+07,-6.09E+07,-4.99E+06,2700,47843,-4348.9-2.33E+07,-9.00E+07,-8.07E+06,2700,47866,-5193.5-2.02E+07,-4.91E+07,-7.41E+06,2700,47913,-3670.3-1.70E+07,-6.21E+07,-3.01E+06,2700,47928,-4131.8-4.78E+06,-1.67E+08,1.50E+07,2700,47965,-7014.8-1.74E+07,-5.41E+07,-2.64E+07,2700,48044,-2959.3-1.58E+07,-5.62E+07,-5.23E+06,2700,48073,-3941.8-2.17E+07,-6.88E+07,-8.48E+06,2700,48105,-4218.7-2.82E+07,-8.27E+07,-9.02E+06,2700,48115,-4601.31.76E+07,-2.07E+07,-1.04E+07,2700,48121,-1823.7-1.86E+07,-4.93E+07,-1.05E+07,2700,48142,-3414.6-3.71E+07,-1.71E+08,3.59E+06,2700,48190,-6174.3-2.62E+07,-7.74E+07,-1.16E+07,2700,48192,-4044.69.17E+05,-8.83E+06,-9.71E+06,2700,48190,-2241.5-1.48E+08,-2.36E+08,-2.44E+07,2700,48227,-9981.7-1.82E+07,-5.28E+07,-8.61E+06,2700,48242,-3873.91.73E+07,-1.56E+07,-8.90E+06,2700,48251,-742.97-2.50E+06,-1.06E+08,1.47E+07,2700,48305,-5613.7-1.24E+07,-4.94E+07,-2.47E+06,2700,48298,-3712.4-1.51E+07,-6.22E+07,-2.32E+07,2700,48312,-2636.8-2.22E+07,-1.41E+08,2.95E+07,2700,48341,-6711-2.13E+07,-5.04E+07,-1.54E+07,2700,48364,-4010.4-1.93E+07,-4.97E+07,-1.32E+07,2700,48375,-4119.6-3.57E+07,-6.82E+07,-1.89E+07,2700,48405,-3764.88.94E+05,-1.49E+08,9.16E+06,2700,48426,-7199.8-2.87E+07,-6.28E+07,-1.44E+07,2700,48463,-3855.5-8.69E+06,-3.71E+07,-6.76E+06,2700,48471,-3172.3-1.85E+07,-4.98E+07,-4.89E+06,2700,48533,-4072.4-3.01E+07,-6.13E+07,-1.12E+07,2700,48539,-3716.9-2.16E+07,-5.88E+07,-5.59E+06,2700,48575,-4294.8-5.94E+06,-3.55E+07,-2.00E+07,2700,48594,-1885.8-1.05E+07,-4.03E+07,-2.11E+07,2700,48600,-2368.5-1.99E+07,-7.01E+07,-2.42E+06,2700,48633,-3786.8-2.10E+07,-6.96E+07,-2.44E+06,2700,48650,-4017.2-2.02E+07,-5.23E+07,-8.66E+06,2700,48655,-3562-6.33E+07,-2.01E+08,-1.19E+07,2700,48679,-8063.8-3.53E+07,-1.26E+08,2.50E+07,2700,48700,-6266.1-2.96E+07,-7.14E+07,-1.15E+07,2700,48730,-3668.6-7.70E+06,-4.21E+07,-1.33E+07,2700,48752,-2758.71.43E+07,-6.73E+06,-6.30E+06,2700,48755,-1365-2.43E+07,-8.25E+07,-4.01E+05,2700,48792,-4775.8-1.20E+07,-3.85E+07,-5.03E+06,2700,48790,-3384.8-1.69E+07,-5.23E+07,-4.62E+06,2700,48802,-3728.4-3.43E+07,-6.52E+07,-1.52E+07,2700,48847,-4213.4-3.11E+07,-1.26E+08,1.44E+07,2700,48856,-6780.8-2.35E+07,-5.40E+07,-4.23E+06,2700,48874,-3905.71.08E+07,-3.63E+07,1.92E+07,2700,48876,-5732.3-1.74E+07,-3.26E+07,-1.11E+07,2700,48885,-3821.3-1.05E+07,-2.47E+07,-7.86E+05,2700,48890,-3707.4-1.63E+07,-5.11E+07,-5.17E+06,2700,48905,-3597.3-6.09E+06,-2.86E+07,-3.48E+06,2700,48911,-3035.7-5.65E+06,-7.61E+06,9.72E+05,2700,48966,-3705.2-1.23E+07,-4.25E+07,-9.78E+05,2700,48962,-3405.39.67E+06,-1.18E+07,5.45E+06,2700,48968,-927.23-2.47E+07,-4.41E+07,-2.32E+06,2700,48999,-3771.9-1.01E+07,-3.79E+07,-6.41E+06,2700,48989,-3218.4-9.85E+06,-3.65E+07,-1.51E+07,2700,48987,-2167.4-1.45E+07,-3.00E+07,5.76E+06,2700,49006,-3637.9-1.40E+08,-2.23E+08,-3.08E+07,2700,49010,-9983.52.83E+06,-8.63E+06,-1.13E+06,2700,49022,-2450.6-1.37E+07,-1.79E+08,2.31E+06,2700,49055,-7244.7-4.56E+06,-2.50E+07,-3.02E+06,2700,49085,-2824.3-1.70E+07,-3.31E+07,-3.38E+06,2700,49103,-3631.32.75E+06,-1.75E+07,-1.34E+07,2700,49097,-1445.21.34E+07,-2.95E+06,-6.96E+06,2700,49146,-1097-1.62E+07,-4.75E+07,-5.39E+06,2700,49163,-3678.9-2.19E+07,-4.14E+07,1.27E+06,2700,49172,-3778.2-1.30E+07,-4.19E+07,-7.05E+06,2700,49180,-3463.3-3.19E+06,-1.90E+07,-4.03E+06,2700,49171,-2600.9-5.15E+07,-1.30E+08,-1.10E+06,2700,49205,-6372.5-1.76E+07,-5.00E+07,-3.92E+06,2700,49209,-3587-7.00E+06,-3.14E+07,-4.63E+06,2700,49246,-2977.5-5.27E+06,-8.61E+06,-6.03E+06,2700,49247,-2141.72.43E+06,4.12E+06,-1.03E+07,2700,49251,-1335.5-1.80E+07,-4.89E+07,1.07E+06,2700,49296,-4525.61.30E+07,1.92E+07,2.43E+05,2700,49280,-1146.2-1.97E+07,-5.51E+07,1.06E+07,2700,49310,-4047.4-3.06E+06,-1.86E+07,-3.84E+06,2700,49322,-2616.61.23E+06,-7.67E+06,-1.04E+07,2700,49325,-1896.31.66E+06,3.68E+06,-6.05E+06,2700,49326,-1604.2-1.46E+07,-4.47E+07,-1.28E+06,2700,49365,-3702.7-3.74E+06,-1.56E+08,3.50E+06,2700,49367,-6847.2-2.63E+05,2.87E+05,2.31E+06,2700,49358,-1092.8-1.23E+07,-4.49E+07,-5.65E+05,2700,49386,-3582.6-8.30E+06,-3.15E+07,-2.08E+06,2700,49407,-3337.2-5.47E+06,-2.64E+07,-4.27E+06,2700,49403,-2846.71.85E+06,5.83E+06,-4.15E+06,2700,49398,-1220.72.47E+07,-1.07E+07,1.05E+07,2700,49420,-5539.9-7.17E+06,-2.87E+07,-3.32E+06,2700,49418,-31305.11E+06,8.22E+06,-4.64E+06,2700,49424,-1128.6-1.82E+06,-1.48E+07,-3.52E+06,2700,49427,-2343.3-7.04E+06,-3.14E+07,-3.79E+06,2700,49448,-3054.9-1.64E+06,5.43E+06,-7.31E+06,2700,49437,-1349.5-3.40E+06,-1.89E+07,-4.45E+06,2700,49462,-2567.7-4.56E+06,-2.18E+07,-4.83E+06,2700,49464,-2660.8-3.68E+06,-1.64E+07,-6.21E+05,2700,49490,-3253.83.65E+06,2.71E+06,-1.75E+06,2700,49483,-1162-5.52E+06,-6.12E+07,2.99E+06,2700,49507,-3874.2-5.01E+06,-2.46E+07,-3.83E+06,2700,49537,-2830.7-4.06E+07,-9.61E+07,-2.09E+07,2700,49545,-6008.21.43E+06,-6.65E+06,-4.37E+06,2700,49532,-2159.7-8.49E+07,-2.33E+08,-3.18E+07,2700,49547,-8007.4-8.32E+06,-2.95E+07,-6.12E+06,2700,49558,-2929.2-8.38E+06,-5.74E+07,-6.35E+06,2700,49567,-3646.91.98E+06,-3.26E+06,-2.53E+06,2700,49558,-1333.9-7.30E+06,-3.13E+07,-3.05E+06,2700,49577,-3244.62.53E+06,-6.77E+05,-2.46E+06,2700,49572,-1210.6-1.60E+06,-1.50E+07,-3.52E+06,2700,49578,-2452.1-1.30E+07,-4.25E+07,-6.78E+06,2700,49611,-34611.42E+06,-3.61E+06,-5.49E+06,2700,49627,-1687.92.61E+06,-2.53E+06,-2.00E+06,2700,49631,-1509.1-1.17E+07,-4.25E+07,-6.10E+06,2700,49651,-3343.4-8.47E+06,-3.28E+07,-3.46E+06,2700,49667,-3191.52.24E+06,-7.74E+06,-3.17E+06,2700,49652,-2002.4-4.20E+06,-2.22E+07,-3.70E+06,2700,49666,-2765.5-1.49E+07,-5.07E+07,-3.99E+06,2700,49696,-3244.9-1.22E+07,-2.83E+07,-2.45E+06,2700,49695,-2977.91.68E+06,-1.98E+06,-1.74E+06,2700,49684,-1266.2-4.13E+07,-1.45E+08,-3.70E+07,2700,49709,-6479.7-6.43E+06,-2.74E+07,-5.07E+06,2700,49714,-2807.22.52E+06,-1.37E+06,-1.48E+05,2700,49710,-1476.1-1.25E+07,-2.78E+07,-3.87E+06,2700,49725,-2920.237606,-7.01E+06,-2.46E+06,2700,49712,-1850.6-2.24E+07,-1.88E+08,-2.36E+07,2700,49726,-7155.3-2.86E+07,-9.54E+07,3.14E+07,2700,49734,-4316.41.56E+06,-5.56E+06,-7.04E+05,2700,49725,-1605.2-4.67E+06,-7.93E+07,5.71E+06,2700,49743,-3950.9-5.10E+05,-1.26E+07,-2.78E+06,2700,49732,-2308.6-3.65E+06,-2.09E+07,-4.11E+06,2700,49744,-2612.2-6.08E+06,-2.68E+07,-5.30E+06,2700,49761,-2727.5-2.83E+07,-1.30E+08,3.09E+07,2700,49775,-4799.3-1.40E+08,-2.45E+08,-3.51E+07,2700,49793,-9985.4-9.43E+06,-3.28E+07,-2.65E+06,2700,49811,-3219.8-6.94E+06,-2.34E+07,1.52E+05,2700,49824,-2984.54.69E+05,-9.22E+06,-2.24E+06,2700,49814,-1779.9-2.14E+07,-4.87E+07,-1.16E+07,2700,49839,-3391.6-7.37E+06,-5.54E+07,-1.40E+07,2700,49850,-3612.8-6.21E+06,-2.89E+07,-4.31E+06,2700,49869,-2748.51.26E+06,-8.16E+06,6.66E+05,2700,49860,-1621.9-1.13E+06,-1.61E+07,-1.78E+06,2700,49869,-2232.94.07E+05,-1.15E+07,-1.51E+06,2700,49904,-1963.2-4.65E+05,-1.16E+07,-2.81E+06,2700,49907,-1882.3-1.89E+07,-1.37E+08,5.65E+06,2700,49946,-5335.1-2.89E+06,-2.10E+07,-2.37E+06,2700,49941,-2494.3-1.35E+07,-3.78E+07,-5.67E+06,2700,49963,-3182.92.65E+06,-1.22E+06,2.12E+05,2700,49946,-1364.84.48E+05,-8.34E+06,-2.02E+05,2700,49954,-1807.62.26E+07,-5.16E+06,-6.48E+06,2700,49975,-4143-7.69E+06,-2.81E+07,-3.30E+06,2700,49978,-2999.9-2.35E+05,-1.37E+07,7.60E+05,2700,50005,-2078.8-1.76E+06,-1.87E+07,-8.56E+05,2700,50010,-2333.62.67E+07,-2.34E+07,-1.14E+06,2700,50035,-3855.15.35E+05,-9.75E+06,1.51E+06,2700,50034,-1928.1-8.48E+06,-3.50E+07,-5.01E+06,2700,50067,-2773.5-9.57E+06,-5.93E+07,2.16E+07,2700,50071,-4527.9-6.62E+06,-3.18E+07,-2.83E+06,2700,50068,-2688.3-1.71E+06,-1.82E+07,9.10E+05,2700,50091,-2266.8-4.50E+06,-2.68E+07,-1.49E+06,2700,50118,-2566.6-3.43E+05,-4.02E+07,-2.26E+06,2700,50139,-3588.41.78E+06,-7.28E+06,8.65E+05,2700,50129,-1651.1-93124,-1.14E+07,2.03E+06,2700,50133,-1837.4-1.24E+06,-1.64E+07,1.37E+06,2700,50147,-2161.6-3.45E+07,-1.10E+08,7.31E+06,2700,50174,-4936.2-3.34E+07,-1.77E+08,-3.60E+07,2700,50193,-6168.4-3.78E+06,-2.45E+07,-8.92E+05,2700,50216,-2349.8-2.14E+07,-4.86E+07,-9.17E+06,2700,50227,-3242-3.70E+06,-2.14E+07,-1.14E+06,2700,50241,-2284.1-1.83E+07,-1.80E+08,-3.11E+07,2700,50243,-6971.3-1.08E+07,-3.35E+07,-4.62E+06,2700,50253,-2819.5-5.25E+07,-2.14E+08,-3.74E+07,2700,50254,-7500.1-2.90E+06,-1.91E+07,-4.26E+05,2700,50267,-2206.13.81E+06,-5.88E+05,5.22E+05,2700,50276,-1407.4-1.39E+06,-1.75E+07,2.00E+05,2700,50316,-2145.51.09E+06,-8.74E+06,1.75E+06,2700,50315,-1798.3-1.73E+05,-1.39E+07,5.74E+05,2700,50320,-1905.89.08E+06,-3.90E+07,-2.09E+06,2700,50332,-4198.4-7.60E+06,-2.38E+07,-2.08E+06,2700,50328,-2258.7-8.33E+06,-2.53E+07,-2.62E+06,2700,50345,-2185.4-1.04E+07,-2.72E+07,-2.79E+06,2700,50385,-2205.78.35E+06,-6.26E+07,2.02E+07,2700,50408,-3837-2.13E+07,-1.59E+08,-8.19E+06,2700,50416,-5641.11.38E+06,-7.91E+06,9.54E+05,2700,50421,-1718.1-5.10E+06,-2.61E+07,1.04E+05,2700,50442,-2239-3.19E+06,-2.21E+07,-3.02E+05,2700,50443,-2177.6-5.52E+06,-2.88E+07,-1.35E+06,2700,50479,-2356.3-7.52E+06,-3.42E+07,-2.92E+06,2700,50485,-2570.95.38E+06,-3.99E+06,2.42E+06,2700,50492,-1391.2-8.64E+05,-1.48E+07,5.67E+05,2700,50539,-1902.5-3.76E+06,-2.26E+07,-1.35E+05,2700,50544,-2168.98.00E+05,-1.10E+07,-8.75E+05,2700,50542,-1761.94.44E+06,-4.93E+05,-1.57E+05,2700,50548,-1691.8-4.93E+07,-1.04E+08,-9.90E+06,2700,50568,-5288.6-5.40E+06,-2.81E+07,-2.83E+06,2700,50592,-2234.2-4.66E+07,-7.39E+07,-2.54E+07,2700,50593,-4904.8-1.05E+08,-2.54E+08,-2.81E+07,2700,50581,-9987.3-4.33E+06,-2.24E+07,-6.83E+05,2700,50616,-2065.5-5.51E+06,-4.36E+07,-4.17E+06,2700,50623,-4491.9-1.31E+06,-3.88E+07,8.97E+06,2700,50627,-3211.9-4.99E+06,-2.47E+07,-1.60E+06,2700,50632,-2176.9-9.69E+06,-3.99E+07,-1.07E+06,2700,50641,-2655.51.57E+06,-1.14E+07,1.71E+06,2700,50684,-1649.2-6.27E+06,-3.14E+07,-2.72E+06,2700,50702,-2189.87.97E+06,-1.06E+07,3.39E+06,2700,50689,-1347.7-4.19E+07,-2.13E+08,-4.01E+07,2700,50705,-7223.11.77E+07,-1.31E+07,1.17E+07,2700,50715,-4090.3-3.90E+07,-2.06E+08,-3.20E+07,2700,50719,-6697.2-4.90E+06,-2.53E+07,-3.25E+06,2700,50723,-2102.7-5.03E+06,-2.84E+07,-9.24E+05,2700,50752,-2280-4.34E+07,-1.93E+08,-3.44E+07,2700,50765,-6112.6-7.52E+06,-3.25E+07,1.79E+06,2700,50785,-2489-5.57E+06,-2.98E+07,-1.93E+06,2700,50791,-2126.43.66E+06,-2.26E+07,2.68E+07,2700,50809,-3672.79.00E+06,-2.58E+06,1.45E+05,2700,50794,-1323.53.98E+06,-6.45E+06,-4.31E+06,2700,50812,-1570.4-2.47E+06,-2.05E+07,21248,2700,50825,-1940.31.06E+07,-4.73E+06,-5.43E+06,2700,50818,-1404.3-3.03E+07,-1.74E+08,-3.70E+07,2700,50854,-5621.8-1.26E+05,-1.55E+07,-5.15E+05,2700,50856,-1719.9-4.26E+06,-2.23E+07,1.06E+06,2700,50871,-2067.8-3.91E+06,-2.30E+07,1.31E+06,2700,50883,-2192.1-1.20E+05,-4.16E+07,8.28E+06,2700,50898,-2862.45.90E+06,2.05E+06,-3.79E+06,2700,50898,-1468.1-5.01E+07,-1.38E+08,-4.58E+07,2700,50911,-5112.9-1.09E+06,-1.63E+07,1.59E+06,2700,50936,-1856.3-4.00E+06,-2.07E+07,4.08E+06,2700,50947,-2093.4-4.95E+07,-1.20E+08,-4.70E+07,2700,50946,-4734.67.02E+06,-1.28E+06,-2.25E+06,2700,50940,-1388.42.29E+06,-5.51E+06,-1.32E+06,2700,50966,-1575.6-2.91E+06,-1.93E+07,3.18E+06,2700,50993,-1954.7-2.71E+07,-1.04E+08,-1.46E+07,2700,51016,-4349.64.29E+06,34695,-1.05E+06,2700,51011,-1462.7-3.96E+06,-3.42E+07,4.20E+05,2700,51031,-2490.1-6.70E+06,-3.15E+07,1.23E+06,2700,51035,-2282.81.68E+06,-8.51E+06,34625,2700,51038,-1823.1-3.10E+06,-2.15E+07,-26594,2700,51048,-2013.4-2.14E+06,-1.49E+07,-4.54E+05,2700,51073,-1878.3-4.71E+07,-2.29E+08,-3.14E+07,2700,51081,-7714.9-1.09E+07,-7.79E+07,7.71E+06,2700,51095,-3954.72.42E+06,-5.56E+06,-1.12E+06,2700,51094,-1672.5-5.58E+05,-5.78E+06,-3.27E+06,2700,51129,-1847.43.95E+06,-1.49E+06,-7.29E+05,2700,51126,-14051.34E+06,-4.49E+06,-2.80E+06,2700,51140,-18012.97E+06,-2.16E+06,8.92E+05,2700,51138,-1266.1-3.03E+07,-1.79E+08,-4.07E+07,2700,51203,-5354.7-1.88E+06,-1.29E+07,-3.30E+06,2700,51214,-1893.77.78E+05,-1.02E+07,-1.65E+06,2700,51211,-1650.62.81E+06,-4.19E+06,-3.26E+05,2700,51209,-1495.42.32E+06,-2.71E+06,1.46E+06,2700,51211,-1383-4.34E+06,-2.40E+07,-2.27E+06,2700,51220,-2115.3-3.25E+06,-1.52E+07,-4.76E+06,2700,51227,-1824.62.95E+05,-9.65E+06,-2.45E+06,2700,51231,-1766.5-4.24E+07,-1.83E+08,-4.45E+07,2700,51259,-4989.7-3.37E+07,-1.86E+08,-4.34E+07,2700,51267,-5798.72.80E+06,-5.34E+07,1.47E+06,2700,51275,-3242.9-2.14E+06,-1.60E+07,-3.62E+06,2700,51282,-19562.15E+06,-6.79E+06,4.72E+05,2700,51286,-1550.92.78E+06,-2.12E+06,1.96E+06,2700,51287,-1341.22.62E+06,-4.32E+06,1.46E+06,2700,51296,-1385.9-7.25E+07,-2.41E+08,-2.54E+07,2700,51298,-8427.34.87E+05,-1.09E+07,-1.37E+06,2700,51311,-1712.6-5.47E+07,-1.98E+08,-4.70E+07,2700,51320,-4618.94.45E+05,-1.12E+07,-7.87E+05,2700,51328,-1644.9-1.42E+06,-1.62E+07,-2.24E+06,2700,51339,-1808.5-3.58E+07,-1.99E+08,-3.27E+07,2700,51339,-6241.3-3.71E+07,-2.25E+08,-3.21E+07,2700,51346,-7303.7-9.43E+07,-2.54E+08,-1.54E+07,2700,51364,-9989.3-6.70E+06,-4.81E+07,-1.66E+06,2700,51388,-2645.71.94E+06,-6.11E+06,1.94E+06,2700,51384,-1376.2-4.71E+07,-1.89E+08,-3.35E+07,2700,51385,-4217.71.77E+06,-7.67E+06,9.01E+05,2700,51405,-1494.43.63E+06,-1.83E+06,1.27E+06,2700,51410,-1171.8-6.95E+05,-1.04E+07,-1.18E+06,2700,51419,-1590.51.55E+06,-8.01E+06,1.37E+06,2700,51438,-1421.9-2.78E+06,-2.03E+07,-2.12E+06,2700,51443,-2101.22.23E+06,-5.51E+06,1.69E+06,2700,51447,-1333.5-1.81E+06,-1.41E+07,-1.52E+06,2700,51459,-1619.4-3.22E+06,-2.11E+07,-2.20E+06,2700,51469,-1864.1-9.61E+05,-1.61E+07,-5.86E+05,2700,51470,-1705.4-8.02E+05,-1.26E+07,2.71E+05,2700,51487,-15622.66E+06,-3.90E+06,1.76E+06,2700,51491,-1236.2-1.94E+07,-1.33E+08,-2.76E+07,2700,51499,-3842.71.96E+06,-5.95E+06,1.99E+06,2700,51522,-1299.62.38E+06,-5.60E+06,1.39E+06,2700,51528,-1378.5-1.86E+06,-1.84E+07,-1.49E+06,2700,51581,-1744.6-4.69E+07,-2.30E+08,-2.93E+07,2700,51569,-7733.9-7.42E+05,-1.49E+07,9.17E+05,2700,51582,-1549.52.25E+05,-1.22E+07,9.33E+05,2700,51584,-1503.93.78E+06,-5.14E+05,1.49E+06,2700,51605,-1251.1-1.21E+06,-1.57E+07,2.54E+05,2700,51614,-1626.6-2.59E+06,-2.01E+07,-3.94E+05,2700,51615,-1693.9-3.43E+07,-1.77E+08,-3.71E+07,2700,51614,-5522.5-3.84E+07,-1.78E+08,-2.90E+07,2700,51624,-5043.72.85E+06,-4.38E+06,8.11E+05,2700,51633,-1315.51.15E+06,-8.80E+06,-4.33E+05,2700,51638,-1430.11.00E+05,-1.19E+07,-1.79E+06,2700,51683,-1518.21.12E+06,-1.03E+07,-1.94E+05,2700,51682,-1371.81.79E+06,-3.59E+07,-1.56E+06,2700,51691,-2341.93.40E+06,-1.93E+06,1.49E+06,2700,51698,-1042.73.08E+06,-4.16E+06,4.25E+05,2700,51709,-1235.6-5.11E+07,-1.63E+08,-3.52E+07,2700,51716,-4528.72.50E+05,-1.21E+07,-1.03E+06,2700,51731,-1430.4-3.38E+07,-2.13E+08,-2.88E+07,2700,51724,-6907.5-1.72E+06,-1.57E+07,-2.32E+06,2700,51749,-1576.4-2.47E+06,-1.86E+07,-1.14E+06,2700,51759,-1755.6-1.43E+06,-1.67E+07,-2.31E+06,2700,51779,-1477.52.24E+06,-5.69E+06,1.44E+06,2700,51786,-1169.91.99E+06,-6.85E+06,1.03E+06,2700,51812,-1222.8-1.10E+06,-1.59E+07,-7.41E+05,2700,51821,-1454.95.06E+05,-1.21E+07,-70535,2700,51825,-1356.3-3.38E+07,-1.85E+08,-3.44E+07,2700,51817,-5925.65.04E+05,-2.46E+07,1.12E+06,2700,51841,-20423.26E+06,-2.98E+05,1.91E+06,2700,51841,-970.4-1.21E+06,-1.14E+07,-3.16E+06,2700,51846,-1511.13.26E+06,-9.16E+05,1.73E+06,2700,51854,-1122.63.70E+06,-1.26E+06,1.10E+06,2700,51873,-1154.6-2.22E+06,-1.44E+07,-1.46E+06,2700,51893,-1619.9-3.74E+07,-2.18E+08,-2.49E+07,2700,51888,-7375.8-1.62E+06,-1.25E+07,-1.16E+06,2700,51914,-1508.1-5.28E+05,-1.30E+07,-1.90E+06,2700,51918,-1343.42.16E+06,-3.94E+06,1.91E+06,2700,51919,-1110.21.98E+06,-1.45E+07,1.50E+06,2700,51923,-1722.4-1.36E+06,-1.41E+07,-1.71E+06,2700,51930,-1395.36.36E+05,-9.07E+06,-8.96E+05,2700,51931,-12441.00E+06,-9.18E+06,7.19E+05,2700,51959,-1156.77.50E+05,-6.93E+06,-2.57E+06,2700,51981,-1295.63.55E+06,-1.44E+06,1.30E+06,2700,51984,-891.962.57E+05,-8.07E+06,-7.25E+05,2700,51995,-1468.22.50E+06,-4.83E+06,8.99E+05,2700,52005,-1030.45.49E+05,-8.71E+06,-1.14E+05,2700,52011,-1348.92.29E+06,-3.33E+07,-6.78E+06,2700,52024,-2612.22.84E+05,-1.03E+07,-1.62E+05,2700,52032,-1272.2-5.25E+07,-2.26E+08,-2.21E+07,2700,52034,-7849.7-3.98E+07,-1.74E+08,-3.04E+07,2700,52041,-5398.7-1.51E+06,-1.72E+07,9.94E+05,2700,52058,-1552.92.11E+06,-5.89E+06,5.22E+05,2700,52071,-1087.8-3.13E+07,-1.94E+08,-3.15E+07,2700,52086,-6431.51.76E+06,-7.10E+06,6.45E+05,2700,52098,-1146.2-8.33E+06,-4.11E+07,-9.85E+06,2700,52099,-2272.3-4.15E+07,-1.30E+08,-4.15E+07,2700,52098,-4032-5.93E+05,-1.42E+07,6.58E+05,2700,52135,-1396.52.40E+06,-6.05E+06,5.03E+05,2700,52135,-1018.32.18E+06,-3.71E+06,1.21E+06,2700,52140,-944.517.04E+05,-1.02E+07,7.98E+05,2700,52143,-1276.32.62E+06,-5.68E+06,5.62E+05,2700,52157,-1048.7-1.86E+05,-1.36E+07,1.05E+06,2700,52163,-1337.2-8.60E+07,-2.59E+08,-9.03E+06,2700,52147,-9991.31.06E+06,-9.41E+06,3.72E+05,2700,52188,-1227.82.47E+06,-2.50E+06,1.17E+06,2700,52208,-986.481.57E+06,-2.33E+06,1.92E+06,2700,52217,-882.042.84E+06,-4.21E+05,1.98E+06,2700,52220,-758.416.48E+05,-1.09E+07,8.60E+05,2700,52233,-1247.7-3.07E+07,-2.05E+08,-2.51E+07,2700,52227,-7012.41.19E+06,-9.12E+06,1.22E+06,2700,52242,-1117.3-1.29E+06,-1.70E+07,-57351,2700,52245,-1400.4-1.11E+07,-4.11E+07,-6.34E+06,2700,52252,-1926.21.86E+06,-4.95E+06,1.53E+06,2700,52280,-948.681.82E+06,-6.36E+06,3.26E+05,2700,52288,-894.14-9.61E+06,-2.72E+07,-3.85E+06,2700,52293,-1656.6-2.68E+07,-8.27E+07,-2.91E+07,2700,52298,-3338.61.54E+06,-7.94E+06,9.63E+05,2700,52303,-1212.2-2.35E+06,-1.64E+07,-1.52E+06,2700,52307,-1318.72.51E+06,-2.03E+06,1.59E+06,2700,52338,-811.118.80E+05,-8.63E+06,2.17E+06,2700,52343,-1054.52.59E+06,-3.72E+06,6.94E+05,2700,52349,-922.233.39E+05,-1.06E+07,9.02E+05,2700,52375,-1094.41.82E+06,-5.69E+06,2.12E+06,2700,52375,-1001-9.63E+05,-1.46E+07,-1.08E+06,2700,52400,-1159.7-3.69E+07,-2.13E+08,-2.28E+07,2700,52387,-7501-4.19E+06,-1.99E+07,-1.90E+06,2700,52405,-1410.73.58E+06,-18829,1.81E+06,2700,52433,-636.47-3.86E+07,-1.41E+08,-3.47E+07,2700,52429,-4633.58.39E+05,-9.83E+06,9.93E+05,2700,52450,-1032.19.73E+06,-4.20E+07,-1.31E+07,2700,52474,-2247.9-1.35E+06,-1.63E+07,-4.19E+05,2700,52477,-11318.88E+05,-9.83E+06,3.63E+05,2700,52486,-959.352.55E+06,-4.32E+06,1.38E+06,2700,52495,-825.013.03E+06,-2.04E+06,1.91E+06,2700,52503,-707.933.94E+05,-1.16E+07,-2.51E+05,2700,52526,-1026.11.61E+06,-8.52E+06,3.26E+05,2700,52544,-859.02-4.75E+06,-2.28E+07,-2.41E+06,2700,52546,-1332.1-7.26E+07,-2.48E+08,-1.38E+07,2700,52535,-8807.86.47E+05,-1.10E+07,4.13E+05,2700,52570,-987.87-9.77E+06,-7.45E+07,-2.05E+07,2700,52575,-2828.1-2.45E+06,-1.85E+07,-1.73E+06,2700,52580,-11752.02E+06,-6.10E+06,1.56E+06,2700,52590,-758.22-1.85E+07,-6.94E+07,-1.61E+07,2700,52628,-1807.1-2.50E+05,-1.20E+07,-1.10E+06,2700,52640,-1036.53.23E+06,-7.43E+05,1.99E+06,2700,52644,-508.88.55E+05,-1.02E+07,1.33E+06,2700,52646,-839.69-3.39E+07,-1.72E+08,-3.17E+07,2700,52645,-5599.4-2.94E+07,-1.87E+08,-2.62E+07,2700,52651,-6234.72.42E+06,-3.91E+06,1.89E+06,2700,52666,-670.13-3.34E+06,-2.15E+07,-2.77E+06,2700,52685,-1118.3-3.70E+06,-2.27E+07,-3.10E+06,2700,52686,-1239.41.93E+06,-6.47E+06,1.60E+06,2700,52690,-744.44-4.27E+05,-1.40E+07,-51796,2700,52691,-959.44-1.10E+07,-2.72E+07,-9.60E+06,2700,52707,-1429.68.09E+05,-1.06E+07,-1.96E+05,2700,52711,-905.72-4.43E+07,-1.30E+08,-4.56E+07,2700,52717,-3927.8-1.71E+06,-1.76E+07,-9.60E+05,2700,52731,-1007.37.34E+05,-1.08E+07,4.38E+05,2700,52742,-853.93-2.91E+07,-2.06E+08,-2.35E+07,2700,52729,-71172.56E+06,-4.10E+06,1.51E+06,2700,52776,-587.91.23E+06,-9.14E+06,7.09E+05,2700,52798,-771.91.55E+06,-7.93E+06,9.94E+05,2700,52801,-702.39-6.33E+05,-1.44E+07,1.20E+05,2700,52808,-9493.44E+06,-1.13E+06,1.67E+06,2700,52820,-398.35-4.35E+07,-2.23E+08,-2.16E+07,2700,52803,-7784.51.56E+06,-8.35E+06,1.17E+06,2700,52822,-625.62-3.91E+06,-2.17E+07,-2.68E+06,2700,52823,-1063.8-4.15E+06,-2.23E+07,-3.76E+06,2700,52828,-1208-3.81E+06,-1.61E+07,-1.77E+06,2700,52848,-10282.52E+06,-4.25E+06,1.62E+06,2700,52876,-554.12-6.77E+06,-2.14E+07,-5.18E+06,2700,52888,-1078.72.11E+06,-6.73E+06,9.70E+05,2700,52896,-614.67-12898,-1.22E+07,-81491,2700,52899,-910.341.15E+06,-9.71E+06,3.47E+05,2700,52934,-737.372.92E+06,-2.29E+06,1.84E+06,2700,52941,-432.72-3.49E+06,-2.20E+07,2.05E+05,2700,52944,-1111-7.53E+07,-2.61E+08,-9.34E+06,2700,52930,-9993.23.53E+06,-3.79E+05,1.72E+06,2700,52971,-302.79-5.43E+06,-2.23E+07,-2.40E+06,2700,52972,-1000.3-3.92E+06,-3.55E+07,-5.29E+06,2700,52971,-1983.1-1.19E+07,-2.19E+07,-3.86E+06,2700,52977,-1229.13.26E+06,-2.84E+06,5.87E+05,2700,52986,-530.14-1.84E+06,-1.74E+07,-1.60E+06,2700,52994,-834.15-1.10E+05,-1.32E+07,-3.81E+05,2700,53013,-740.14-3.39E+07,-1.19E+08,-3.08E+07,2700,53011,-32301.42E+06,-6.91E+06,1.52E+06,2700,53033,-500.11-5.14E+06,-2.26E+07,8.75E+05,2700,53051,-1084.61.41E+06,-9.26E+06,1.75E+05,2700,53065,-598.521.68E+06,-6.19E+06,1.88E+06,2700,53077,-458.226.59E+05,-1.16E+07,-5.35E+05,2700,53082,-715.12-1.16E+06,-1.61E+07,-1.76E+06,2700,53088,-757.23-3.13E+07,-2.89E+06,-3.77E+06,2700,53087,-1394.51.08E+06,-1.04E+07,-3.66E+05,2700,53099,-648.973.15E+06,-8.25E+05,1.92E+06,2700,53118,-209.9-2.62E+07,-1.59E+08,-3.51E+07,2700,53107,-5162.46.39E+05,-1.02E+07,1.15E+06,2700,53132,-594.352.62E+06,-3.27E+06,1.92E+06,2700,53141,-324.82.33E+06,-5.10E+06,1.70E+06,2700,53141,-402.87-1.25E+06,-1.56E+07,-1.25E+06,2700,53155,-725.772.36E+06,-5.60E+06,1.36E+06,2700,53162,-446.22.67E+06,-3.50E+06,1.82E+06,2700,53187,-369.338.35E+05,-1.03E+07,2.07E+05,2700,53187,-565.163.03E+06,-2.12E+06,1.78E+06,2700,53217,-265-2.78E+07,-2.97E+07,8.83E+06,2700,53235,-1222.4-6.11E+06,-2.08E+07,-1.18E+06,2700,53239,-995.32-1.85E+06,-1.84E+07,-1.64E+06,2700,53242,-812.041.36E+06,-8.41E+06,1.08E+05,2700,53247,-447.392.54E+06,-4.64E+06,8.68E+05,2700,53247,-383.75-2.06E+06,-1.68E+07,-2.09E+06,2700,53257,-731.35-2.92E+07,-2.09E+08,-2.22E+07,2700,53245,-7158.52.87E+06,-6.94E+05,2.04E+06,2700,53264,-116.222.43E+06,-4.93E+06,1.31E+06,2700,53264,-327.634.55E+05,-1.16E+07,-2.66E+05,2700,53276,-546.75-4.29E+07,-1.43E+08,-4.27E+07,2700,53270,-4455.5-1.48E+06,-1.60E+07,-7.91E+05,2700,53283,-660.071.47E+06,-9.17E+06,1.89E+05,2700,53285,-413.782.38E+06,-4.73E+06,1.57E+06,2700,53313,-284.481.27E+06,-8.96E+06,-4.84E+05,2700,53319,-508.341.07E+06,-9.77E+06,-8.24E+05,2700,53336,-462.33-3.72E+07,-2.15E+08,-2.03E+07,2700,53325,-7669.9-3.96E+07,-1.20E+08,-2.77E+07,2700,53349,-3780.12.58E+06,-5.10E+06,1.21E+06,2700,53358,-298.51.55E+06,-8.70E+06,6.47E+05,2700,53363,-361.172.75E+06,-2.25E+06,1.71E+06,2700,53365,-225.15-3.07E+05,-1.43E+07,-1.33E+05,2700,53371,-569.32-2.56E+07,-1.96E+08,-2.27E+07,2700,53358,-6616.7-2.08E+07,-1.02E+08,-2.84E+07,2700,53376,-2401-1.65E+07,-3.42E+07,2.80E+07,2700,53383,-15002.64E+06,-1.30E+06,1.75E+06,2700,53394,-31.299-1.36E+06,-1.71E+07,2.72E+05,2700,53426,-75982985,-1.30E+07,27500,2700,53428,-452.7-5.64E+07,-2.32E+08,-1.50E+07,2700,53412,-8216.1-1.56E+07,-8.72E+07,-1.16E+05,2700,53433,-1951.61.78E+06,-6.02E+06,1.81E+06,2700,53447,-226.874.23E+05,-1.14E+07,8.71E+05,2700,53463,-324.54-1.19E+06,-1.59E+07,-9.85E+05,2700,53468,-576.44-1.22E+06,-1.34E+07,1.99E+05,2700,53483,-264.041.19E+06,-9.43E+06,-7.37E+05,2700,53503,-368.312.02E+06,-2.93E+06,2.04E+06,2700,53511,-124.24-2.83E+07,-6.69E+07,-2.40E+07,2700,53523,-2961-1.55E+06,-2.40E+07,-4.59E+05,2700,53536,-647.56-8.79E+05,-9.97E+06,-19924,2700,53540,-282.362.38E+06,-3.82E+06,1.21E+06,2700,53558,-65.9457.39E+05,-7.25E+06,1.17E+06,2700,53568,-212.966.67E+06,-2.98E+07,8.95E+06,2700,53568,-1244.73.37E+06,-1.12E+06,1.30E+06,2700,53580,91.69-26009,-6.92E+06,3.72E+05,2700,53581,-361.24-5.40E+06,-3.88E+07,4.94E+05,2700,53587,-856.02-6.08E+05,-3.83E+06,3.11E+06,2700,53593,-297.24.02E+05,-1.07E+07,6.23E+05,2700,53598,-412.076.69E+05,-1.70E+07,2.58E+06,2700,53648,-560.32-1.59E+06,-1.43E+07,8.27E+05,2700,53666,-299.52-2.52E+07,-1.80E+08,-2.62E+07,2700,53680,-6080.6-6.76E+05,-1.34E+07,-6.71E+05,2700,53695,-417.076.28E+05,-1.05E+07,-2.78E+05,2700,53700,-254.64-1.87E+07,-7.53E+07,2.73E+05,2700,53723,-16011.17E+06,-9.97E+06,-4.93E+05,2700,53727,-180.32-6.53E+07,-2.51E+08,-5.97E+06,2700,53715,-9995.22.03E+06,-4.94E+06,1.62E+06,2700,53751,34.185-2.90E+07,-2.07E+08,-1.89E+07,2700,53734,-7325.92.14E+06,-5.75E+05,2.25E+06,2700,53777,223.871.55E+06,-8.44E+06,5.95E+05,2700,53784,-62.125-5.44E+05,-1.24E+07,4.01E+05,2700,53792,-301.331.45E+06,-7.45E+06,-40397,2700,53794,-210.24-2.51E+07,-1.53E+08,-3.58E+07,2700,53796,-4956.52.51E+06,-1.87E+06,1.20E+06,2700,53820,84.7789.24E+05,-7.92E+06,1.72E+06,2700,53823,-19.517-5.97E+07,-9.93E+07,-4.61E+07,2700,53822,-3452.8-1.36E+06,-2.69E+07,1.54E+06,2700,53833,-638.23-4.25E+07,-2.17E+08,-1.47E+07,2700,53819,-7842.72.03E+06,-5.15E+06,8.86E+05,2700,53841,-151.376.05E+05,-2.19E+07,1.35E+05,2700,53854,-424.212.22E+06,-3.80E+06,1.17E+06,2700,53890,68.1041.01E+07,-2.77E+07,9.43E+06,2700,53898,-959.75-1.72E+06,-9.81E+06,-96636,2700,53901,-278.197.50E+05,-8.70E+06,1.56E+06,2700,53916,-110.7-4.67E+07,-1.31E+08,-4.55E+07,2700,53908,-4109-2.52E+05,-6.66E+06,3.49E+06,2700,53921,99.043-3.70E+07,-6.94E+07,-2.47E+07,2700,53923,-2245.41.36E+06,-8.28E+06,1.50E+06,2700,53944,-13.6221.80E+06,-4.26E+06,1.92E+06,2700,53976,161.261.05E+06,-7.32E+06,2.19E+06,2700,53981,75.2613.87E+06,-3.05E+06,4.06E+06,2700,54011,-112.49-4.27E+06,-1.62E+07,-3.16E+06,2700,54023,-205.15-8.25E+06,-1.68E+07,-8.41E+06,2700,54029,-398.062.93E+06,-2.14E+06,1.42E+06,2700,54037,402.532.04E+06,-3.63E+07,7.23E+05,2700,54035,-1241.23.86E+06,-1.33E+06,6.25E+05,2700,54055,192.743.07E+06,-3.77E+06,4.24E+05,2700,54059,103.762.25E+06,-3.65E+06,1.67E+06,2700,54074,278.97-3.28E+07,-7.62E+07,-3.74E+07,2700,54098,-2947.8-2.21E+07,-1.71E+08,-2.90E+07,2700,54093,-5611.41.99E+06,-8.28E+06,2.90E+06,2700,54131,11.6911.15E+06,-5.78E+06,2.55E+06,2700,54133,222.221.60E+06,-7.93E+06,8.33E+05,2700,54136,171.191.31E+07,1.45E+07,-1.98E+06,2700,54148,-697.422.98E+06,-1.90E+06,1.65E+06,2700,54161,325.94-2.17E+07,-1.96E+08,-1.71E+07,2700,54145,-6784.89.26E+05,-6.58E+06,2.62E+06,2700,54185,285.63-6.65E+06,-1.93E+07,2.38E+06,2700,54184,-132.434.91E+06,-3.73E+06,3.90E+06,2700,54193,145.092.63E+06,-1.00E+06,2.32E+06,2700,54202,517.431.67E+06,-5.42E+06,2.22E+06,2700,54209,252.211.25E+06,-7.74E+06,1.90E+06,2700,54272,245.062.31E+06,-4.00E+06,2.10E+06,2700,54274,310.551.34E+06,-1.54E+07,6.41E+06,2700,54304,14.8765.36E+06,-1.11E+06,9.86E+06,2700,54303,-414.292.64E+06,-2.25E+06,2.04E+06,2700,54307,443.745.45E+06,-9.61E+06,3.89E+06,2700,54309,186.69-1.76E+07,-1.85E+08,-2.09E+07,2700,54297,-6190.4-3.02E+07,-2.09E+08,-1.34E+07,2700,54306,-7444.32.86E+06,-4.25E+05,2.26E+06,2700,54339,508.581.33E+06,-7.13E+06,1.02E+06,2700,54343,380.992.27E+06,-1.03E+07,1.74E+06,2700,54346,296.82.99E+06,-1.01E+06,2.09E+06,2700,54355,623.28-4.80E+07,-7.37E+07,-1.31E+07,2700,54349,-1866.5-1.04E+07,-4.99E+07,-2.88E+06,2700,54401,-881.072.70E+06,-3.14E+06,1.80E+06,2700,54409,504.722.67E+06,-9.94E+05,1.48E+06,2700,54434,677.42-6.59E+07,-8.14E+07,-2.52E+06,2700,54448,-2463.62.54E+06,-4.15E+06,1.28E+06,2700,54457,553.51.94E+06,-4.53E+06,1.81E+06,2700,54463,435.7898758,-1.39E+07,-75452,2700,54469,350.29-2.68E+05,-1.40E+07,1.20E+07,2700,54478,-191.742.79E+06,-1.68E+06,1.29E+06,2700,54487,668.422.25E+06,-1.09E+06,1.17E+06,2700,54509,728.36-4.04E+07,-2.19E+08,-8.42E+06,2700,54495,-7969.4-1.66E+07,-1.63E+08,-2.83E+07,2700,54504,-5090.7-2.67E+07,-1.48E+08,-3.82E+07,2700,54507,-4186.2-6.44E+07,-2.56E+08,-1.95E+06,2700,54499,-9997.37.18E+06,-1.21E+07,1.31E+06,2700,54532,253.872.16E+06,-3.86E+06,1.59E+06,2700,54544,543.423.08E+06,-4.02E+06,-3.77E+05,2700,54564,366.352.26E+06,1.31E+06,2.01E+06,2700,54566,766.635.75E+05,-2.46E+06,5.13E+05,2700,54569,488.08-1.24E+07,-5.34E+07,-4.60E+06,2700,54585,-452.172.28E+06,8.11E+05,1.69E+06,2700,54627,599.683.26E+06,-6.40E+05,1.75E+06,2700,54629,808.972.30E+06,2.01E+05,1.53E+06,2700,54638,529.348.13E+06,-7.62E+06,9.26E+06,2700,54638,42.241-5.59E+07,-2.39E+08,-5.74E+06,2700,54627,-8711.9-1.14E+08,-9.28E+07,-6.97E+06,2700,54647,-2128.53.60E+06,3.03E+06,1.35E+06,2700,54670,707.69-9.16E+06,-7.75E+07,-3.63E+07,2700,54677,-745.314.61E+05,-3.58E+06,2.86E+06,2700,54685,417.333.66E+06,-1.33E+06,1.36E+06,2700,54695,851.78-1.11E+05,2.29E+06,1.93E+06,2700,54702,485.772.53E+06,2.35E+06,2.56E+06,2700,54703,563.132.72E+06,-2.88E+07,-1.01E+06,2700,54708,-1410.11.28E+06,-5.58E+06,3.86E+06,2700,54721,774.187.22E+06,-8.42E+06,9.50E+06,2700,54730,260.42.90E+06,-3.19E+05,1.82E+06,2700,54739,880.33-1.36E+07,-1.78E+08,-2.08E+07,2700,54741,-5710.1-1.16E+07,-2.59E+07,6.39E+06,2700,54759,-226.78-4.45E+07,-1.39E+08,-5.12E+07,2700,54773,-3645.84.24E+06,6.45E+05,2.92E+06,2700,54792,533.61-1.50E+07,-1.91E+08,-1.44E+07,2700,54787,-6560.41.11E+06,-1.53E+06,1.41E+06,2700,54808,923.948.14E+06,-9.62E+06,6.71E+06,2700,54814,440.725.28E+06,-2.32E+06,5.59E+06,2700,54823,666.524.33E+06,-5.12E+06,4.05E+06,2700,54824,807.86-7.84E+07,-1.45E+08,-1.97E+07,2700,54819,-2457.1-2.68E+07,-5.31E+07,-6.82E+06,2700,54845,-17931.48E+06,-1.00E+06,1.84E+06,2700,54862,958.04-3.15E+07,-2.90E+07,-2.10E+07,2700,54865,-503.752.30E+06,-2.25E+06,1.36E+06,2700,54892,880.67-3.17E+07,-2.13E+08,-8.89E+06,2700,54878,-7561.97.07E+06,2.08E+06,-6.04E+06,2700,54916,-978.12.75E+06,-1.98E+06,1.43E+06,2700,54927,957.91-1204.2,-1.50E+07,9.65E+05,2700,54929,782.378.22E+06,-1.63E+07,4.25E+06,2700,54930,517.752.66E+06,-2.65E+06,1.19E+06,2700,54942,1006.6-5.22E+07,-1.52E+08,-4.92E+07,2700,54943,-2809.4-2.01E+07,-1.53E+08,-3.23E+07,2700,54948,-4598.42.41E+06,-4.48E+06,-1.05E+06,2700,55002,1041.92.39E+07,-4.87E+06,-4.08E+06,2700,54999,-1414.71.85E+07,-2.04E+07,9.15E+06,2700,55034,270.85-1.51E+06,-6.67E+06,1.51E+05,2700,55040,894.61-8.83E+07,-1.23E+08,-3.16E+07,2700,55035,-2155.3-4.97E+07,-3.06E+07,1.54E+06,2700,55049,-288.03-2.33E+07,-2.00E+08,-9.99E+06,2700,55036,-7043.53.61E+06,-3.06E+07,9.45E+06,2700,55059,-4.370568418,-1.61E+06,-2.48E+06,2700,55062,1076.51.11E+07,-1.94E+07,5.88E+06,2700,55068,545.31-3.96E+07,-2.20E+08,-6.88E+06,2700,55065,-8098.43.19E+05,-1.37E+06,-7.40E+05,2700,55097,1008.2-2.50E+06,1.51E+05,-4.35E+05,2700,55121,1109.7-1.82E+07,-8.86E+07,-3.50E+07,2700,55122,-1685.97.57E+05,-1.03E+07,-3.62E+06,2700,55135,811.494.44E+06,-5.72E+07,2.97E+06,2700,55152,-1168.9-3.10E+07,-4.30E+07,1.15E+07,2700,55155,-565.643.68E+06,1.92E+05,1.70E+06,2700,55182,1142.5-1.19E+07,-5.50E+07,1.58E+07,2700,55202,-868.29-1.04E+08,-1.77E+08,-4.87E+07,2700,55219,-25156.73E+05,-2.37E+06,1.47E+06,2700,55239,1072.42.99E+06,-3.04E+05,1.89E+06,2700,55242,1174.11.20E+06,-1.17E+08,-3.23E+07,2700,55289,-1440.42.80E+06,53891,1.69E+06,2700,55302,1204.3-3.07E+07,-6.23E+07,-2.72E+06,2700,55305,-164.58-5.83E+07,-2.57E+08,-4.06E+06,2700,55283,-9999.31.20E+07,-1.13E+05,3.70E+06,2700,55315,624.531.49E+06,-4.02E+06,1.11E+06,2700,55321,887.873.06E+06,-6.07E+05,1.52E+06,2700,55324,1159.53.50E+06,1.08E+06,1.32E+06,2700,55362,1233.31.69E+07,-1.77E+07,9.27E+06,2700,55380,373.158.46E+05,-3.14E+06,5.40E+06,2700,55396,1075-1.32E+07,-1.85E+08,-1.03E+07,2700,55376,-6487.6-8.18E+06,-1.71E+08,-1.40E+07,2700,55392,-5639.33.54E+06,1.56E+06,3.24E+06,2700,55414,1257.8-9.47E+06,-1.01E+08,1.14E+07,2700,55434,-667.482.88E+06,-3.22E+07,-1.43E+06,2700,55439,96.7134.15E+06,-6.44E+05,4.59E+06,2700,55466,1281.3-2.94E+07,-2.07E+08,-8.46E+06,2700,55450,-7679.4-1.27E+07,-7.57E+07,5.09E+06,2700,55473,-389.454.97E+06,-1.16E+05,3.28E+06,2700,55485,1199-3.17E+07,-1.47E+08,-3.11E+07,2700,55481,-3474.3-4.66E+07,-1.58E+08,-5.44E+07,2700,55497,-1761.35.95E+06,1.03E+06,2.70E+06,2700,55518,1303.74.70E+06,-1.82E+06,7.55E+06,2700,55527,842.38-8.38E+06,-1.60E+08,-2.18E+07,2700,55537,-4963.26.44E+06,1.01E+06,3.54E+06,2700,55570,1325.15.89E+06,-1.96E+06,3.73E+06,2700,55586,1247.3-2.88E+07,-1.35E+08,-1.91E+07,2700,55590,-1082.42.31E+07,-6.72E+06,3.44E+06,2700,55596,563.14-1.90E+07,-5.53E+07,-1.84E+07,2700,55597,-137.27-2.15E+07,-1.93E+08,-8.24E+06,2700,55581,-7042.77.17E+06,-2.12E+06,3.86E+06,2700,55621,1345.3-2.57E+07,-1.50E+08,-2.77E+07,2700,55610,-4189.5-4.21E+07,-2.25E+08,-6.11E+06,2700,55602,-8204.56.03E+06,-2.63E+07,-7.44E+06,2700,55647,287.77-7.38E+07,-1.42E+08,-3.06E+07,2700,55647,-2791.68.74E+06,-2.62E+06,1.54E+06,2700,55672,1364.56.50E+06,-7.11E+06,5.53E+05,2700,55679,13165.95E+06,-4.28E+06,5.22E+06,2700,55685,1136.3-9.26E+07,-1.31E+08,-4.43E+07,2700,55694,-2089.73.62E+06,-1.70E+06,-2.39E+06,2700,55722,1382.82.26E+05,1.42E+06,-1.33E+06,2700,55773,1400.16.41E+06,3.85E+05,4.33E+05,2700,55783,1309.3-2.14E+07,-8.14E+07,-2.10E+07,2700,55832,-581.392.81E+06,1.21E+06,5.08E+06,2700,55841,1422-1.53E+07,-4.57E+07,-1.59E+07,2700,55839,49.9763.56E+06,-9.23E+06,4.48E+06,2700,55844,771.92-6.55E+06,-4.66E+07,-1.19E+07,2700,55890,-266.439.60E+06,-1.33E+06,5.36E+06,2700,55910,1442.25.48E+06,-2.65E+07,-1.32E+07,2700,55921,343.699.80E+06,5.48E+06,1.02E+07,2700,55941,13011.06E+07,1.16E+07,1.02E+07,2700,55958,1096.51.37E+07,-6.33E+05,6.65E+06,2700,55978,1460.7-1.21E+07,-1.78E+08,-4.65E+06,2700,55966,-6552.6-4.65E+07,-9.86E+07,-3.21E+07,2700,55985,-1692-2.58E+07,-8.42E+07,-9.50E+06,2700,56018,-1199.81.89E+07,-3.62E+05,6.94E+06,2700,56046,1477.6-3.02E+07,-2.10E+08,-6.98E+06,2700,56022,-7796.62.08E+07,-68370,1.05E+07,2700,56074,1386.7-5.65E+07,-2.61E+08,-3.29E+06,2700,56067,-10001-7.09E+06,-3.25E+06,7.11E+06,2700,56144,894.03-9.70E+05,-1.61E+08,-8.94E+06,2700,56128,-5326-3.35E+07,-6.58E+07,-3.02E+07,2700,56163,-818.98-8.28E+07,-1.01E+08,-4.07E+07,2700,56171,-2133.9-3.59E+07,-1.39E+08,-1.98E+07,2700,56175,-3695.5-2.94E+07,-4.35E+07,-2.86E+07,2700,56203,-413.72-6.55E+07,-1.10E+08,-2.67E+07,2700,56215,-2711.28.69E+06,-1.11E+07,1.42E+07,2700,56226,1157.2-4.29E+07,-2.29E+08,-8.75E+06,2700,56214,-8348.42.93E+07,-3.07E+06,7.75E+06,2700,56313,1528.4-1.24E+07,-2.89E+07,-1.23E+07,2700,56338,67.586-1.36E+07,-3.57E+07,1.51E+06,2700,56358,508.17-1.10E+07,-1.45E+08,-1.32E+07,2700,56354,-4423.42.85E+07,-1.01E+07,8.98E+06,2700,56374,1420.8-5.36E+07,-2.45E+08,-4.19E+06,2700,56356,-9153.5-5.89E+06,-1.67E+08,-3.34E+06,2700,56377,-6083.9-2.34E+07,-1.97E+08,-5.23E+06,2700,56432,-7255.5-1.27E+07,-5.57E+07,1.18E+07,2700,56499,926.77-1.67E+07,-4.17E+07,-1.52E+07,2700,56494,-1162.83.22E+07,-1.43E+07,7.79E+06,2700,56517,1552.3-6.29E+07,-9.04E+07,-3.27E+07,2700,56529,-1639.2-2.49E+07,-3.97E+07,-2.58E+07,2700,56542,-652.15-1.38E+07,-1.79E+08,-1.17E+06,2700,56583,-6661.5-3.49E+07,-2.18E+08,-8.05E+06,2700,56594,-7914.1-6.82E+07,-1.09E+08,-2.85E+07,2700,56619,-2306.6-4.40E+07,-1.25E+08,-1.92E+07,2700,56633,-3102.62.03E+07,-1.47E+07,-1.27E+06,2700,56655,1246.83.31E+07,-8.63E+06,-1.92E+06,2700,56720,1565.1-4.39E+07,-2.27E+08,-7.81E+06,2700,56781,-8454.81.28E+06,-1.44E+08,-3.11E+06,2700,56795,-4913.5-3.79E+07,-6.21E+07,-2.24E+07,2700,56842,-365.44-5.23E+07,-2.55E+08,-1.73E+06,2700,56852,-10003-2.25E+07,-4.46E+07,-4.49E+06,2700,56883,272.741.25E+06,-1.52E+08,1.68E+06,2700,56891,-5565.2-5.91E+06,-3.65E+07,-91687,2700,56910,923.62-3.41E+07,-8.53E+07,-2.81E+07,2700,56974,-1043.6-2.60E+07,-2.00E+08,-7.53E+06,2700,57075,-7030.42.17E+07,-5.91E+06,-7.20E+06,2700,57128,1560.7-2.66E+07,-1.22E+08,-1.03E+07,2700,57152,-3585.6-3.51E+07,-2.15E+08,-4.03E+06,2700,57166,-8031.3-6.21E+07,-9.95E+07,-3.22E+07,2700,57194,-17551.11E+07,-3.46E+06,-9.05E+06,2700,57248,1157.8-8.70E+05,-1.02E+07,-1.02E+07,2700,57278,753.5-4.34E+07,-1.04E+08,-1.10E+07,2700,57287,-2922.4-5.66E+06,-1.26E+08,-2.61E+06,2700,57300,-4277.9-4.66E+07,-2.38E+08,-2.21E+06,2700,57354,-8572.4-8.35E+06,-1.65E+08,-1.58E+06,2700,57405,-6083.8-5.63E+07,-9.28E+07,-1.52E+07,2700,57417,-2324.85.29E+06,-1.37E+08,3.96E+06,2700,57435,-5078.1-4.32E+07,-6.62E+07,-1.68E+07,2700,57472,-490.42-2.80E+07,-2.70E+07,-1.16E+07,2700,57513,423.294.33E+06,-1.31E+07,-2.78E+06,2700,57525,1527.4-4.83E+07,-7.42E+07,-2.27E+07,2700,57566,-1251.7-2.78E+07,-1.98E+08,-3.34E+06,2700,57576,-7490.1-2.02E+07,-1.85E+08,-5.67E+06,2700,57586,-6677.1-5.21E+07,-2.63E+08,-2.61E+06,2700,57638,-100055.28E+05,-1.00E+07,-5.32E+06,2700,57737,1027.2-3.52E+07,-2.12E+08,1.70E+06,2700,57739,-8147.43.91E+06,-1.28E+08,6.02E+06,2700,57835,-4599.8-1.72E+07,-1.12E+08,2.20E+06,2700,57855,-3684.7-4.75E+07,-2.46E+08,-3.82E+06,2700,57890,-8670.3-1.06E+06,-1.49E+08,8.52E+05,2700,57901,-5382-4.67E+07,-9.15E+07,-8.77E+06,2700,57919,-2676.5-1.27E+07,-1.70E+08,-4.21E+06,2700,57969,-5932.7-5.26E+07,-7.84E+07,-1.48E+07,2700,58012,-2011.4-2.89E+07,-1.98E+08,-1.30E+06,2700,58129,-7704.4-3.06E+07,-2.72E+07,-1.45E+07,2700,58153,319.56-4.99E+07,-6.32E+07,-1.56E+07,2700,58181,-1380.9-3.23E+07,-9.72E+07,-1.40E+06,2700,58215,-3201.5-1.96E+07,-1.79E+08,-61037,2700,58208,-6688.2-2.85E+06,-1.04E+07,-1.63E+06,2700,58296,1408.5-4.10E+07,-2.24E+08,-8.76E+06,2700,58312,-8264.12.25E+06,-1.43E+08,2.64E+06,2700,58353,-4947.36.73E+05,-1.28E+08,6.91E+06,2700,58376,-4356.3-6.59E+06,-1.57E+08,6.43E+05,2700,58425,-5569.7-4.77E+07,-2.51E+08,-8.86E+05,2700,58423,-10008-4.75E+07,-5.30E+07,-1.55E+07,2700,58484,-803.01-4.67E+07,-3.79E+07,-1.38E+07,2700,58488,-192.26-4.34E+07,-7.96E+07,-5.96E+06,2700,58485,-2422.4-1.32E+07,-1.67E+08,1.95E+06,2700,58504,-6165-4.89E+07,-2.42E+08,-1.44E+07,2700,58557,-8796.9-2.64E+07,-1.92E+08,-1.03E+06,2700,58586,-7228.8-4.74E+07,-6.72E+07,-1.13E+07,2700,58659,-1827.5-2.46E+07,-1.60E+07,-9.06E+06,2700,58811,809.19-2.25E+07,-9.95E+07,3.11E+06,2700,58804,-3334.7-1.03E+07,-1.16E+08,5.77E+06,2700,58826,-3971.2-4.56E+07,-2.32E+08,-1.26E+07,2700,58885,-8380.4-1.81E+07,-1.73E+08,2.81E+06,2700,58927,-6593-4.44E+07,-2.54E+07,-1.36E+07,2700,58965,190.06-9.66E+06,-1.57E+08,4.68E+06,2700,58952,-5803-6.23E+05,-1.41E+08,5.43E+06,2700,58974,-5045-2.96E+07,-8.74E+07,-1.25E+05,2700,59021,-2735.9-3.84E+07,-2.17E+08,-9.67E+06,2700,59018,-7727.1-1.83E+07,-8.96E+06,-3.09E+06,2700,59064,1263.1-4.39E+07,-2.35E+08,-30255,2700,59079,-8896-4.02E+07,-7.13E+07,-4.82E+06,2700,59174,-2149.4-4.68E+07,-5.74E+07,-9.15E+06,2700,59183,-1543.2-4.75E+07,-4.44E+07,-1.00E+07,2700,59213,-948.68-4.46E+07,-2.52E+08,-8.21E+05,2700,59217,-10010-3.52E+07,-1.21E+07,-7.04E+06,2700,59348,699.55-1.37E+07,-1.05E+08,5.58E+06,2700,59356,-3654.7-1.54E+06,-1.22E+08,7.61E+06,2700,59386,-4270.6-1.73E+07,-1.68E+08,2.58E+06,2700,59410,-6152.6-4.52E+07,-2.67E+07,-8.22E+06,2700,59435,-241.57-3.82E+07,-2.18E+08,6.90E+06,2700,59458,-8495.2-7.42E+06,-1.51E+08,7.48E+06,2700,59567,-5519.3-3.81E+07,-2.15E+08,-2.28E+05,2700,59577,-79213.85E+05,-1.35E+08,9.59E+06,2700,59605,-4865.7-4.55E+07,-2.45E+08,-4.51E+06,2700,59617,-9018.6-2.90E+07,-1.90E+08,-4.38E+06,2700,59631,-6766.3-3.10E+07,-8.06E+07,8.84E+05,2700,59697,-2598.3-4.05E+07,-6.27E+07,-3.34E+06,2700,59700,-1840.6-3.40E+07,-3.70E+06,-4.08E+05,2700,59831,1109.5-1.90E+07,-9.67E+07,5.39E+06,2700,59841,-3271.9-4.42E+07,-1.05E+07,-8.21E+05,2700,59884,589.92-3.41E+07,-1.99E+08,32054,2700,59879,-7356.8-4.64E+07,-4.11E+07,-6.67E+06,2700,59948,-842.47-2.62E+07,-1.82E+08,-1.52E+06,2700,60011,-6328.91.28E+06,-1.25E+08,9.32E+06,2700,60016,-4354.8-4.26E+07,-2.57E+08,-2.58E+06,2700,60010,-10012-4.26E+07,-2.23E+08,-5.40E+06,2700,60035,-8609.1-1.72E+07,-1.67E+08,3.65E+06,2700,60079,-5766.7-5.93E+06,-1.12E+08,8.90E+06,2700,60102,-3785.5-3.55E+07,-2.06E+08,1.16E+06,2700,60172,-7925.9-3.38E+07,-7.05E+07,-7.49E+05,2700,60199,-2217.7-3.08E+07,-1.88E+08,1.86E+06,2700,60233,-6863.4-4.96E+07,-2.28E+07,-4.00E+06,2700,60296,-134.61-6.67E+06,-1.46E+08,7.43E+06,2700,60393,-5239.4-2.20E+07,-8.72E+07,4.45E+06,2700,60447,-2791.4-4.10E+07,-4.96E+07,-4.01E+06,2700,60460,-1146.8-2.22E+07,-1.69E+08,5.43E+06,2700,60542,-6095.1-4.93E+07,-4.46E+06,5.19E+06,2700,60597,953.92-3.48E+07,-2.04E+08,3.29E+05,2700,60578,-7363.5-1.18E+05,-1.24E+08,1.07E+07,2700,60611,-4287.2-4.91E+07,-2.54E+08,-7.66E+06,2700,60614,-8720.2-4.34E+07,-2.32E+08,-1.64E+06,2700,60658,-8182-9.17E+06,-1.08E+08,9.74E+06,2700,60671,-3693.6-4.76E+07,-3.34E+07,-4.39E+06,2700,60701,-603.55-3.14E+07,-6.68E+07,26404,2700,60816,-2112.5-3.38E+07,-2.55E+08,2.15E+06,2700,60807,-10014-3.16E+07,-1.87E+08,9.81E+05,2700,60816,-6834.9-5.41E+07,-1.18E+07,3.22E+06,2700,60957,371.02-4.17E+07,-4.52E+07,-2.04E+06,2700,61055,-1112.3-1.38E+07,-1.52E+08,9.11E+06,2700,61056,-5566.1-3.84E+07,-2.30E+08,-3.00E+06,2700,61085,-7840.4-5.26E+07,-2.40E+07,-45384,2700,61129,-156.19-2.61E+06,-1.35E+08,1.10E+07,2700,61135,-4574.5-2.57E+07,-1.67E+08,4.89E+06,2700,61138,-6297.2-9.86E+06,-1.01E+08,8.63E+06,2700,61187,-3370.7-1.67E+07,-8.76E+07,4.98E+06,2700,61209,-2764.4-1.48E+06,-1.18E+08,1.09E+07,2700,61208,-3974.5-5.55E+07,-2.61E+08,3.62E+05,2700,61195,-8829.4-6.17E+07,-5.84E+06,9.05E+06,2700,61364,797.86-4.01E+07,-1.95E+08,-7.58E+06,2700,61400,-6866.2-3.91E+07,-2.57E+08,6.36E+06,2700,61396,-9353.2-2.72E+07,-7.04E+07,1.61E+06,2700,61451,-2175.8-6.13E+07,-1.36E+07,6.47E+06,2700,61494,261.64-3.76E+07,-2.13E+08,-7.73E+06,2700,61565,-7455.3-4.41E+07,-2.47E+08,-9.48E+06,2700,61600,-8289.4-4.41E+07,-4.44E+07,-1.43E+06,2700,61640,-1126.6-3.27E+07,-2.52E+08,1.43E+07,2700,61618,-10016-5.30E+07,-2.85E+07,1.95E+06,2700,61647,-357.39-1.88E+07,-1.66E+08,1.17E+07,2700,61657,-5734.5-8.85E+06,-1.52E+08,1.26E+07,2700,61700,-5076.6-4.15E+06,-1.08E+08,1.04E+07,2700,61761,-3569.9-4.29E+07,-2.53E+08,1.13E+07,2700,61777,-8937.1-3.92E+07,-1.87E+08,3.34E+06,2700,61807,-6337.5-3.13E+07,-6.03E+07,-40412,2700,61844,-1674.9-1.57E+06,-1.31E+08,1.10E+07,2700,61894,-4347.9-1.87E+07,-8.09E+07,3.63E+06,2700,61956,-2613.7-4.66E+07,-1.91E+08,-5.55E+06,2700,61961,-6988.3-6.28E+07,-1.76E+07,6.81E+06,2700,62030,152.35-5.42E+07,-3.29E+07,1.89E+06,2700,62118,-788.72-6.92E+07,-8.40E+06,1.11E+07,2700,62130,641.89-8.85E+06,-9.54E+07,7.57E+06,2700,62131,-3147.1-2.32E+07,-2.00E+08,4.72E+06,2700,62161,-8493.9-4.56E+07,-1.96E+08,-9.68E+06,2700,62227,-7489.8-1.91E+07,-1.75E+08,8.02E+06,2700,62262,-5581-4.26E+07,-4.68E+07,-67483,2700,62309,-1333.3-2.18E+05,-1.14E+08,1.13E+07,2700,62320,-3683-4.31E+07,-2.24E+08,3.06E+06,2700,62373,-9033-7.28E+06,-1.52E+08,7.04E+06,2700,62396,-4870.5-4.33E+07,-1.74E+08,2.14E+07,2700,62408,-6632.7-4.75E+07,-2.66E+08,-9.76E+06,2700,62422,-10018-1.46E+07,-7.81E+07,3.29E+06,2700,62536,-2294.6-6.81E+07,-1.63E+07,8.75E+06,2700,62566,43.216-2.38E+07,-1.69E+08,-2.45E+06,2700,62563,-8018.7-3.07E+07,-1.89E+08,5.59E+06,2700,62577,-6075-6.31E+05,-1.01E+08,9.75E+06,2700,62685,-3247.3-5.73E+07,-3.02E+07,3.80E+06,2700,62720,-575.71-2.99E+07,-5.79E+07,-1.54E+05,2700,62774,-1677.6-2.63E+07,-1.69E+08,1.38E+06,2700,62756,-8591.26.49E+05,-1.11E+08,9.74E+06,2700,62863,-3765.4-5.53E+06,-1.30E+08,9.31E+06,2700,62882,-4312.5-7.88E+07,-6.81E+06,1.35E+07,2700,62896,486.12-5.55E+07,-2.66E+08,-2.35E+07,2700,62957,-9139.7-4.50E+07,-4.17E+07,6.51E+05,2700,63010,-1114.1-5.70E+07,-2.41E+08,1.86E+07,2700,63062,-7350.3-7.45E+07,-1.51E+07,1.07E+07,2700,63103,-65.824-1.95E+07,-1.72E+08,1.89E+07,2700,63162,-6158.6-1.43E+07,-6.98E+07,3.88E+06,2700,63187,-2423.5-1.84E+06,-8.80E+07,7.28E+06,2700,63199,-2995-3.57E+07,-2.47E+08,1.58E+07,2700,63210,-8160.2-1.40E+07,-1.51E+08,6.97E+06,2700,63296,-5312.9-4.21E+07,-2.33E+08,1.66E+06,2700,63297,-6764.5-2.45E+07,-2.30E+08,4.20E+06,2700,63293,-10015-3.41E+07,-5.07E+07,1.63E+05,2700,63353,-1588.2-5.46E+06,-1.14E+08,1.13E+07,2700,63366,-4021.8-5.91E+07,-3.05E+07,3.60E+06,2700,63518,-774.182.23E+06,-9.46E+07,9.41E+06,2700,63543,-3453.1-4.92E+07,-2.57E+08,-4.16E+05,2700,63587,-9197-8.57E+07,-7.75E+06,1.49E+07,2700,63662,330.65-6.02E+07,-3.13E+08,2.38E+07,2700,63672,-8598-4.69E+07,-3.12E+08,-1.01E+07,2700,63756,-7205.5-2.84E+07,-2.03E+08,-6.21E+06,2700,63760,-6037.6-9.85E+06,-1.28E+08,6.95E+06,2700,63809,-4745.4-2.06E+07,-5.65E+07,3.47E+06,2700,63854,-1892.3-4.29E+07,-4.24E+07,1.30E+06,2700,63876,-1293.8-2.00E+06,-7.37E+07,9.18E+06,2700,63922,-2659.1-6.43E+06,-9.58E+07,1.05E+07,2700,63931,-4047.7-4.37E+07,-2.67E+08,1.74E+07,2700,63977,-7839.7-2.67E+07,-1.66E+08,-1.77E+07,2700,64130,-5570.6-8.24E+07,-1.48E+07,1.06E+07,2700,64176,-283.42-7.14E+07,-2.84E+08,2.90E+07,2700,64184,-10016-5.40E+07,-2.48E+08,4.50E+07,2700,64213,-9246.7-4.48E+07,-2.24E+08,-2.60E+07,2700,64223,-6677-6.28E+07,-2.97E+07,1.58E+06,2700,64330,-902.28-4.21E+06,-6.04E+07,9.65E+06,2700,64336,-2236.5-4.81E+07,-2.00E+08,-2.66E+07,2700,64364,-6109.4-5.07E+07,-3.01E+08,1.84E+07,2700,64374,-8286.92.92E+06,-8.27E+07,1.61E+07,2700,64404,-3260.6-9.44E+07,-7.34E+06,1.78E+07,2700,64428,175.63-1.10E+07,-1.32E+08,6.39E+06,2700,64476,-7313.2-3.09E+07,-1.23E+08,-1.65E+07,2700,64508,-5069.9-1.50E+07,-9.59E+07,1.37E+06,2700,64518,-4449.7-4.24E+07,-2.70E+08,2.64E+07,2700,64595,-8828.3-8.81E+07,-1.09E+07,9.59E+06,2700,64712,-392-4.03E+07,-3.82E+07,3.58E+06,2700,64801,-1333-2.58E+07,-1.81E+08,-8.59E+06,2700,64855,-7932.5-6.86E+07,-2.76E+08,4.30E+07,2700,64878,-9262-1.27E+07,-1.02E+08,-9.63E+06,2700,64884,-6409.31.04E+06,-4.95E+07,8.36E+06,2700,64915,-2360.88.15E+06,-8.00E+07,1.34E+07,2700,64924,-2960.1-1.08E+07,-9.82E+07,1.26E+07,2700,64976,-3844.1-3.36E+07,-1.41E+08,-1.74E+07,2700,65082,-5499.9-2.83E+07,-1.53E+08,-8.78E+06,2700,65092,-4826.2-1.10E+08,-7.26E+06,1.49E+07,2700,65194,21.555-9.40E+07,-1.43E+07,1.17E+07,2700,65248,-500.27-2.92E+07,-1.48E+08,2.13E+07,2700,65236,-7344.8-2.11E+07,-1.21E+08,9.80E+06,2700,65273,-8755-1.73E+07,-3.19E+07,1.09E+07,2700,65301,-1648.2-5.42E+07,-1.58E+07,8.36E+06,2700,65413,-1069.6-3.04E+07,-8.14E+07,1.72E+07,2700,65411,-6046.11.46E+07,-7.87E+07,1.23E+07,2700,65450,-3251.2-6.43E+07,-1.57E+08,-4.61E+06,2700,65489,-9983.7-1.70E+06,-2.07E+07,1.72E+07,2700,65498,-2214.8-3.04E+07,-1.18E+08,1.33E+07,2700,65510,-7996.1-4.44E+07,-1.21E+08,1.19E+06,2700,65653,-4195.1-2.78E+07,-1.33E+08,2.83E+07,2700,65692,-5159.5-6.45E+05,-5.23E+07,3.81E+06,2700,65724,-2745.3-8.54E+07,-1.28E+07,2.42E+07,2700,65784,-607.99-2.35E+07,-7.83E+07,2.08E+07,2700,65784,-6980.2-2.82E+07,-1.37E+07,1.99E+07,2700,65860,-1459.3-1.78E+07,-6.19E+07,-2.72E+06,2700,65855,-3659.5-7.03E+06,-2.49E+07,9.52E+06,2700,65898,-7456-1.21E+08,-1.88E+07,1.73E+07,2700,65959,-129.96-4.53E+07,-1.66E+08,-6.14E+06,2700,65987,-8504.3-4.39E+07,-1.16E+08,4.23E+07,2700,65968,-6380.6-5.11E+06,-1.08E+08,2.55E+07,2700,66049,-5743.6-1.45E+07,-3.79E+07,2.05E+07,2700,66094,-2302.4-7.32E+07,-3.11E+08,-2.45E+07,2700,66266,-9986.1-1.62E+07,-4.12E+07,9.06E+06,2700,66298,-2844.8-8.53E+07,-2.08E+07,3.43E+07,2700,66321,-715.052.87E+06,-4.78E+07,1.33E+07,2700,66333,-4884.7-3.73E+07,-1.93E+08,-1.85E+07,2700,66389,-7728.75.79E+06,1.47E+06,1.03E+07,2700,66379,-3412.6-5.36E+07,-1.69E+08,2.31E+07,2700,66538,-6816.3-4.65E+07,-2.72E+08,-2.60E+07,2700,66559,-8587.2-2.41E+07,-1.90E+07,-2.40E+05,2700,66558,-4137-5.67E+07,-2.46E+08,-1.24E+06,2700,66690,-7256.2-2.72E+07,-4.21E+07,3.49E+07,2700,66703,-2383.5-8.17E+07,-5.50E+06,1.87E+07,2700,66721,-269.64-3.51E+07,-2.43E+07,3.21E+07,2700,66737,-1430.1-2.07E+07,-1.06E+08,1.70E+07,2700,66881,-5700.6-2.84E+07,-1.20E+08,2.05E+07,2700,66882,-6207.28.52E+06,-6.11E+06,2.34E+07,2700,66951,-3501.5-4.03E+07,-2.45E+08,-3.84E+07,2700,66978,-8224.9-8.02E+06,-2.00E+07,2.89E+07,2700,67112,-1926.5-3.73E+07,-2.80E+08,-2.70E+07,2700,67123,-9988.3-1.43E+07,-4.45E+07,3.97E+07,2700,67221,-2999.5-4.07E+07,-2.59E+08,-2.14E+07,2700,67242,-8755.5-4.79E+07,-2.63E+08,-2.30E+07,2700,67258,-7553.5-1.21E+07,-7.02E+07,1.24E+07,2700,67303,-5161.5-2.79E+07,-6.26E+07,2.98E+07,2700,67303,-3947.1-3.21E+07,-6.51E+07,1.59E+07,2700,67310,-4682.4-7.08E+07,-1.90E+08,-3.06E+07,2700,67378,-6789.2-4.83E+07,-3.99E+07,3.82E+07,2700,67390,-916.5-4.04E+07,-6.48E+07,5.41E+07,2700,67559,-1469.9-4.76E+07,-2.93E+08,-1.65E+07,2700,67633,-8233.7-6.87E+06,-3.54E+07,1.07E+07,2700,67723,-5732.2-1.96E+07,-1.01E+08,4.56E+07,2700,67737,-2021-1.47E+07,-1.01E+08,4.12E+07,2700,67795,-2636.4-3.53E+07,-2.51E+08,3.81E+06,2700,67822,-8858.61.77E+06,-5.05E+07,1.94E+07,2700,67912,-982.051.43E+06,-3.19E+07,8.90E+06,2700,67930,-5247.8-4.66E+07,-1.53E+08,3.96E+07,2700,68022,-4127.9-3.45E+07,-2.68E+08,-1.55E+06,2700,68036,-9990.9-7.63E+07,-2.47E+08,-7.32E+07,2700,68049,-6653.2-8.13E+07,-1.98E+08,-6.26E+07,2700,68080,-6012.7-3.78E+07,-1.36E+08,4.66E+07,2700,68068,-3637.5-4.52E+07,-2.24E+08,-4.36E+07,2700,68083,-7300.3-1.43E+07,-9.48E+06,-4.16E+06,2700,68182,-431.1-2.76E+07,-7.57E+07,4.28E+07,2700,68275,-1637.1-1.70E+07,-9.80E+07,3.16E+07,2700,68297,-3024.1-1.96E+07,-1.77E+08,-1.69E+07,2700,68324,-8038.3-3.53E+07,-1.44E+08,3.59E+07,2700,68427,-4622.4-9.81E+06,-6.69E+07,2.87E+07,2700,68439,-2398.31.77E+07,1.37E+07,-6.17E+05,2700,68454,-1033.2-2.97E+07,-2.14E+08,-4.73E+06,2700,68566,-7556.9-3.23E+07,-2.30E+08,-7.55E+06,2700,68568,-8873.4-9.71E+07,-2.88E+08,-7.22E+07,2700,68603,-5612.6-2.28E+07,-2.02E+08,-8.76E+06,2700,68688,-6959.8-2.58E+07,-1.92E+08,-1.92E+07,2700,68690,-8423.1-6.20E+07,-2.67E+08,1.12E+07,2700,68705,-4984.1-3.32E+07,-8.89E+07,3.16E+07,2700,68743,-3587.2-3.67E+07,-9.67E+05,1.74E+07,2700,68782,-338.17-2.27E+07,-8.92E+07,2.61E+07,2700,68847,-3933.9-2.43E+07,-2.58E+08,-9.49E+06,2700,68902,-9992.92.11E+06,-9.05E+06,1.82E+07,2700,68902,-1547.2-2.04E+07,-2.04E+08,-7.63E+06,2700,68923,-7929.1-8.08E+07,-2.71E+08,-5.19E+07,2700,69008,-6158.1-2.09E+07,-1.97E+08,4.03E+06,2700,69133,-7444-2.40E+07,-7.72E+07,3.93E+07,2700,69150,-3101.9-2.77E+07,-2.42E+08,-1.00E+07,2700,69189,-8979.4-1.07E+08,-2.71E+08,-2.58E+07,2700,69229,-5314.4-3.70E+07,-2.66E+08,-9.51E+06,2700,69265,-8340.12.36E+06,-2.78E+07,1.60E+07,2700,69316,-1774.1-4.05E+06,-4.77E+07,2.25E+07,2700,69408,-2275.9-7.52E+07,-2.29E+08,-8.67E+06,2700,69453,-4529.8-6.60E+05,-3.50E+06,2.09E+07,2700,69460,-647.97-5.11E+07,-1.42E+08,1.87E+07,2700,69478,-4023.6-2.51E+07,-1.95E+08,-3.99E+06,2700,69494,-6883-7.06E+06,-1.36E+07,2.18E+07,2700,69485,-129.89-9.98E+06,-5.18E+07,3.29E+07,2700,69721,-1105.4-4.84E+07,-1.90E+08,4.49E+07,2700,69743,-6140.1-2.85E+07,-1.14E+08,6.01E+06,2700,69780,-3262.1-2.90E+07,-2.46E+08,-8.57E+06,2700,69792,-7690-2.55E+07,-2.55E+08,-2.20E+05,2700,69817,-9994.2-2.70E+07,-2.54E+08,3.80E+06,2700,69821,-8528.4-3.42E+07,-2.87E+08,1.06E+07,2700,69827,-9047.26.56E+06,-4.73E+07,1.77E+07,2700,69947,-2644.69.99E+06,-4.14E+07,2.06E+07,2700,69984,-506.368.89E+06,-2.57E+07,1.99E+07,2700,70009,-1904.9-7.09E+07,-1.78E+08,-1.72E+07,2700,70018,-3855.5-9.42E+07,-2.16E+08,-1.69E+07,2700,70092,-4457.5-7.84E+07,-1.50E+08,3.12E+07,2700,70107,-5650-9.52E+07,-1.64E+08,-2.81E+06,2700,70130,-5059.9-4.79E+07,-2.18E+08,8.01E+06,2700,70142,-6658.6-3.75E+07,-2.25E+08,4.94E+06,2700,70200,-7241.9-1.77E+07,-2.04E+08,-9.59E+06,2700,70226,-81743.37E+06,-6.13E+07,2.97E+07,2700,70276,-1374.73.13E+07,-4.30E+06,4.94E+06,2700,70395,-22.099-2.57E+07,-2.36E+08,1.04E+07,2700,70426,-9100.2-5.99E+07,-1.84E+08,4.24E+06,2700,70461,-6127.7-1.49E+07,-1.50E+08,-1.13E+07,2700,70520,-2742.73.55E+07,-4.40E+06,5.18E+06,2700,70566,-480.23-1.49E+07,-1.14E+08,1.30E+07,2700,70587,-2050.9-4.40E+07,-1.62E+08,-2.30E+07,2700,70626,-3300.1-7.42E+07,-1.08E+08,2.56E+07,2700,70672,-4728.8-3.10E+07,-2.63E+08,4.58E+06,2700,70695,-9994.6-2.43E+07,-2.02E+08,5.65E+06,2700,70837,-8587.1-2.33E+07,-1.89E+08,2.35E+07,2700,70892,-8049.2-7.04E+07,-1.40E+08,19120,2700,70901,-4156.9-5.04E+07,-2.17E+08,1.17E+07,2700,70916,-6894.2-6.30E+07,-1.50E+08,1.53E+07,2700,70929,-5525.8-2.85E+07,-1.58E+08,4.45E+06,2700,71082,-2612.5-9.67E+05,-5.41E+07,-1.16E+07,2700,71108,-1134.6-5.36E+07,-1.52E+08,1.85E+07,2700,71118,-3620.9-3.40E+07,-2.41E+08,-8.08E+06,2700,71127,-9115.3-6.90E+07,-1.85E+08,-4.65E+06,2700,71158,-6112.13.69E+07,-4.79E+06,5.37E+06,2700,71199,16.187-6.63E+07,-1.33E+08,1.13E+07,2700,71221,-5011.7-2.59E+07,-1.82E+08,2.82E+07,2700,71265,-7566.7-1.60E+07,-9.38E+07,-2.13E+07,2700,71320,-1879.5-2.65E+07,-2.63E+08,-6.15E+06,2700,71532,-9995-4.05E+07,-2.17E+08,1.60E+07,2700,71561,-8088.5-3.44E+07,-1.14E+08,1.43E+07,2700,71638,-3345.2-4.81E+07,-1.62E+08,3.13E+07,2700,71659,-65472.44E+07,-2.06E+07,-5.92E+06,2700,71668,-489.01-5.79E+07,-1.50E+08,2.68E+07,2700,71687,-3983.4-7.13E+07,-1.53E+08,2.04E+07,2700,71689,-4621.9-7.96E+07,-1.71E+08,8.45E+06,2700,71746,-5542.3-3.51E+07,-2.48E+08,-6.51E+06,2700,71763,-9214.2-4.75E+07,-2.61E+08,1.30E+06,2700,71837,-8613.5-3.48E+06,-7.52E+07,-1.46E+07,2700,71884,-2464.1-4.36E+06,-4.67E+07,-2.90E+07,2700,71926,-1398.5-4.35E+07,-2.19E+08,4.66E+06,2700,71958,-7583.63.90E+07,-4.54E+06,4.27E+05,2700,71987,8.8092-3.51E+07,-1.78E+08,1.56E+07,2700,72135,-6991-5.36E+07,-2.56E+08,-3.64E+06,2700,72197,-8152.21.52E+06,-3.40E+07,-1.43E+07,2700,72212,-497.3-4.07E+07,-1.59E+08,3.04E+07,2700,72279,-6423.4-5.84E+07,-1.34E+08,3.95E+07,2700,72279,-5843.8-5.00E+07,-1.14E+08,1.60E+07,2700,72345,-3939.7-4.20E+07,-2.75E+08,1.98E+07,2700,72380,-8759.9-3.61E+07,-2.85E+08,1.29E+07,2700,72385,-9272.3-2.67E+07,-2.55E+08,-4.95E+06,2700,72424,-9995.31.76E+07,-5.15E+07,-1.63E+07,2700,72472,-2235.9-3.04E+07,-3.18E+07,-3.23E+07,2700,72478,-1077.7-7.04E+07,-1.41E+08,3.02E+07,2700,72533,-5301.2-4.54E+06,-6.83E+07,-5.12E+06,2700,72604,-2845.9-2.32E+07,-8.01E+07,4.85E+06,2700,72624,-3427.3-6.92E+07,-1.19E+08,2.37E+07,2700,72653,-4592.6-4.69E+07,-2.14E+08,-2.35E+06,2700,72673,-7379-2.13E+07,-2.33E+07,-1.58E+07,2700,72758,-504.592.02E+07,-9.56E+06,-1.80E+06,2700,72765,0.0095495-5.24E+07,-1.91E+08,4.20E+05,2700,72764,-6795.7-3.30E+07,-2.10E+08,-1.76E+06,2700,72767,-8382.39.86E+06,-3.65E+07,-1.76E+07,2700,72866,-1748.6-6.25E+07,-1.76E+08,2.74E+07,2700,72943,-6131.8-3.45E+07,-2.43E+08,1.25E+07,2700,73010,-9310-3.11E+07,-1.85E+07,-1.86E+07,2700,73026,-990.711.67E+07,-6.09E+07,-1.03E+07,2700,73172,-2633.5-1.76E+07,-8.21E+07,4.90E+06,2700,73203,-3555.9-3.23E+07,-2.60E+08,2.13E+06,2700,73280,-9995.5-6.86E+07,-1.38E+08,2.47E+07,2700,73281,-4973.8-7.29E+07,-1.79E+08,2.75E+07,2700,73293,-5601.7-5.13E+07,-1.12E+08,1.74E+07,2700,73299,-4262.2-2.22E+07,-1.01E+07,-1.36E+07,2700,73304,-511.22-6.05E+07,-2.14E+08,1.13E+07,2700,73340,-7090.5-3.58E+07,-2.19E+08,2.35E+06,2700,73358,-8754.2-3.53E+07,-2.08E+08,1.41E+07,2700,73364,-8173.32.51E+07,-4.38E+07,-1.32E+07,2700,73469,-2110.48.72E+06,-6.97E+06,-6.56E+06,2700,73542,-8.8994-1.03E+07,-2.65E+07,-1.42E+07,2700,73570,-1419.1-4.55E+07,-2.64E+08,-2.28E+06,2700,73646,-9338.6-7.72E+07,-1.94E+08,1.94E+07,2700,73667,-6112.46.23E+06,-7.85E+07,-6.56E+06,2700,73684,-3280.5-4.59E+07,-2.07E+08,2.20E+07,2700,73719,-7685.42.21E+07,-5.87E+07,-1.31E+07,2700,73770,-2740.3-2.57E+07,-1.02E+08,7.57E+06,2700,73785,-3838.5-7.69E+07,-2.10E+08,2.31E+07,2700,73806,-6647.5-2.97E+07,-1.09E+07,-5.74E+06,2700,73849,-515.74-4.83E+07,-1.24E+08,1.21E+07,2700,73915,-4631.3-6.73E+07,-1.64E+08,1.81E+07,2700,73938,-5553-4.48E+07,-2.23E+08,1.23E+07,2700,73979,-8193.5-5.93E+07,-1.97E+08,3.37E+07,2700,74063,-7144.9-3.70E+07,-2.77E+08,-4.25E+06,2700,74113,-9995.71.81E+07,-6.75E+07,-1.14E+07,2700,74211,-3107.3-7.22E+07,-1.83E+08,2.34E+07,2700,74240,-6294.1-4.44E+07,-2.69E+08,4.04E+06,2700,74249,-9374.3-4.69E+07,-2.55E+08,8.71E+06,2700,74287,-8751.3-5.70E+07,-2.10E+08,2.33E+07,2700,74317,-7728.8-7.32E+06,-7.92E+06,-6.44E+06,2700,74320,-15.661-2.18E+07,-2.22E+07,-2.98E+06,2700,74393,-1177.5-6.11E+06,-8.56E+07,-6.84E+06,2700,74403,-3645.21.83E+07,-4.06E+07,-1.05E+07,2700,74447,-2035.5-6.38E+07,-1.73E+08,1.41E+07,2700,74531,-5788.4-6.64E+07,-1.90E+08,3.47E+07,2700,74587,-6766.5-5.99E+07,-2.49E+08,9.83E+06,2700,74599,-8225.9-4.61E+07,-1.35E+08,74816,2700,74634,-4714.32.20E+07,-5.88E+07,-1.19E+07,2700,74678,-2772.2-4.24E+07,-2.37E+08,1.18E+07,2700,74855,-9406.1-6.88E+07,-2.38E+08,1.61E+07,2700,74923,-7706.5-2.22E+07,-9.64E+07,-1.75E+07,2700,74924,-4167.7-3.18E+07,-1.14E+07,-2.37E+06,2700,74943,-521.34-4.21E+07,-2.51E+08,1.01E+05,2700,74945,-9995.9-4.79E+07,-1.43E+08,5.13E+06,2700,75049,-5294.9-1.42E+07,-7.48E+06,-3.02E+06,2700,75101,-20.471-6.52E+07,-1.73E+08,2.18E+07,2700,75154,-6452.4-4.88E+07,-2.29E+08,1.69E+07,2700,75188,-8831.3-1.10E+07,-3.73E+07,5.03E+05,2700,75213,-1426.92.07E+07,-5.88E+07,-2.98E+06,2700,75229,-2228.5-5.95E+07,-2.31E+08,1.93E+07,2700,75233,-8228.2-6.97E+07,-2.04E+08,1.74E+07,2700,75234,-7077.96.64E+06,-8.18E+07,-1.21E+07,2700,75329,-3193.5-9.03E+06,-8.19E+07,-1.85E+07,2700,75433,-3803.8-5.30E+07,-1.46E+08,1.67E+07,2700,75446,-5885.8-5.90E+07,-2.54E+08,6.56E+05,2700,75475,-9428.3-3.10E+07,-1.23E+07,-1.89E+05,2700,75490,-523.31-2.86E+07,-1.08E+08,-1.20E+07,2700,75500,-4420.3-6.29E+07,-2.10E+08,2.17E+07,2700,75591,-7688.41.71E+07,-7.76E+07,-8.20E+06,2700,75665,-2671.3-3.44E+07,-1.17E+08,2.26E+06,2700,75703,-5299-2.50E+07,-2.98E+07,-6.67E+05,2700,75762,-1100-5.65E+07,-2.68E+08,2.29E+05,2700,75768,-9996.1-5.44E+07,-2.05E+08,3.01E+07,2700,75793,-8499.4-2.08E+07,-5.86E+06,-4.74E+06,2700,75882,-23.97-6.16E+07,-1.71E+08,1.56E+07,2700,76004,-6668.89.77E+06,-6.30E+07,-2.52E+06,2700,76031,-2169.6-3.32E+07,-1.10E+07,-1.84E+06,2700,76037,-524.9-9.37E+06,-1.14E+08,-5.83E+06,2700,76045,-3925-7.12E+07,-2.76E+08,7.61E+06,2700,76068,-9447.1-7.07E+07,-2.57E+08,8.88E+06,2700,76135,-8918-9.56E+06,-4.29E+07,-4.45E+06,2700,76152,-1571-5.86E+07,-2.03E+08,1.92E+07,2700,76222,-7495.1-2.52E+07,-1.19E+08,6.40E+06,2700,76244,-4942.3-4.64E+07,-1.41E+08,6.84E+06,2700,76303,-5891.87.44E+06,-1.00E+08,-4.77E+06,2700,76354,-3257.8-6.52E+07,-2.31E+08,1.99E+07,2700,76371,-8323.1-6.63E+07,-2.61E+08,-5.85E+06,2700,76578,-9996.3-2.58E+07,-2.85E+07,-4.41E+06,2700,76583,-1137.91.58E+07,-7.84E+07,-9.98E+06,2700,76594,-2595.8-3.33E+07,-1.34E+08,8.21E+06,2700,76644,-5394.8-2.73E+07,-8.28E+06,-2.71E+06,2700,76664,-26.621-6.59E+07,-2.47E+08,2.27E+07,2700,76667,-9460.4-6.84E+07,-2.40E+08,1.14E+07,2700,76681,-8821.2-1.53E+07,-1.15E+08,1.07E+07,2700,76751,-4320.8-2.31E+06,-9.59E+07,-3.06E+06,2700,76754,-3715.2-5.51E+07,-1.72E+08,9.51E+06,2700,76768,-6503.7-5.55E+07,-1.77E+08,1.23E+07,2700,76819,-7168.4-6.62E+07,-2.17E+08,1.79E+07,2700,76967,-8273.97.60E+06,-5.49E+07,-7.13E+06,2700,77088,-2067.3-4.37E+07,-1.65E+08,9.25E+06,2700,77125,-5762.1-1.67E+07,-3.65E+07,-5.19E+06,2700,77129,-1351.6-3.42E+07,-1.55E+07,-2.95E+06,2700,77133,-527.811.50E+07,-7.70E+07,-6.32E+06,2700,77155,-3023-7.67E+07,-2.55E+08,1.36E+07,2700,77264,-9469.6-5.79E+07,-1.88E+08,1.43E+07,2700,77289,-7746.9-2.45E+07,-1.42E+08,5.67E+06,2700,77328,-5008.33.16E+06,-9.13E+07,1.74E+06,2700,77358,-3796.5-8.25E+07,-2.77E+08,1.83E+06,2700,77379,-9996.4-5.30E+07,-1.79E+08,2.28E+07,2700,77438,-6889.8-3.34E+07,-8.42E+06,-2.36E+06,2700,77446,-28.683-8.60E+06,-1.20E+08,3.03E+06,2700,77551,-4407.6-7.65E+07,-2.40E+08,7.50E+06,2700,77567,-8867.6-8.23E+06,-4.39E+07,-4.64E+06,2700,77576,-1730.6-7.07E+07,-2.17E+08,1.24E+07,2700,77606,-8268-2.73E+07,-3.04E+07,-3.04E+06,2700,77679,-1147.6-5.88E+07,-1.92E+08,1.87E+07,2700,77753,-7381.8-8.39E+07,-2.57E+08,1.16E+07,2700,77851,-9478.5-4.44E+07,-1.62E+08,1.49E+07,2700,77870,-6126.7-3.20E+07,-1.41E+08,6.35E+06,2700,77874,-5436.11.74E+07,-6.73E+07,-3.79E+06,2700,77892,-2705.21.52E+07,-8.37E+07,-3.62E+06,2700,77895,-3382.14.87E+06,-5.21E+07,-3.82E+06,2700,78002,-2131.5-1.50E+07,-1.26E+08,7.91E+05,2700,78078,-4775.7-1.45E+07,-3.95E+07,-2.39E+06,2700,78146,-1565.2-7.56E+07,-2.37E+08,5.54E+06,2700,78165,-8534.6-8.52E+07,-2.63E+08,2.00E+06,2700,78176,-9996.6-3.97E+07,-1.20E+07,-2.22E+06,2700,78228,-530.074.02E+06,-1.02E+08,-3.54E+06,2700,78268,-3947.9-4.86E+07,-1.74E+08,1.77E+07,2700,78312,-6742.8-6.53E+07,-2.10E+08,9.79E+06,2700,78335,-7496.1-8.81E+07,-2.49E+08,3.63E+06,2700,78447,-9486.8-2.86E+07,-2.78E+07,-1.77E+06,2700,78501,-1049-8.03E+07,-2.38E+08,9.73E+06,2700,78514,-8954.1-7.31E+07,-2.25E+08,1.14E+07,2700,78531,-8058.8-2.13E+07,-1.32E+08,1.02E+07,2700,78566,-5285-3.61E+07,-1.54E+08,1.34E+07,2700,78770,-5957.5-9.38E+06,-4.17E+07,-5.90E+05,2700,78774,-1567.9-4.13E+07,-1.26E+07,-2.27E+06,2700,78775,-530.91.67E+07,-8.43E+07,-3.80E+06,2700,78784,-3202.51.19E+07,-9.69E+07,-4.20E+06,2700,78853,-3813.71.65E+07,-6.79E+07,-2.15E+06,2700,78855,-2591.4-6.68E+07,-2.09E+08,8.82E+06,2700,78941,-7619.5-9.63E+07,-2.62E+08,1.21E+06,2700,78973,-9996.8-2.61E+06,-1.15E+08,2.51E+06,2700,78995,-43945.85E+06,-5.46E+07,-2.35E+06,2700,79009,-2064.3-4.15E+07,-5.50E+06,-1.91E+06,2700,79011,-31.552-5.64E+07,-1.91E+08,7.18E+06,2700,79026,-7013.5-9.28E+07,-2.60E+08,8.97E+06,2700,79038,-9494.2-8.11E+07,-2.37E+08,1.54E+07,2700,79044,-8801.4-2.08E+07,-1.39E+08,1.15E+07,2700,79234,-5451.4-2.68E+07,-2.83E+07,-1.69E+06,2700,79242,-1151.9-7.17E+07,-2.15E+08,8.67E+06,2700,79317,-8105.5-4.02E+07,-1.32E+07,-1.55E+06,2700,79323,-531.661.54E+07,-9.12E+07,-2.00E+06,2700,79342,-3467.31.25E+07,-6.35E+07,-1.43E+06,2700,79423,-2469.7-5.58E+06,-4.58E+07,-1.49E+06,2700,79535,-1902.12.64E+05,-1.18E+08,3.96E+06,2700,79552,-4825-8.65E+07,-2.39E+08,5.53E+06,2700,79574,-8961.1-4.31E+07,-1.72E+08,8.77E+06,2700,79579,-6381.3-9.81E+07,-2.57E+08,6.55E+06,2700,79628,-9499.61.72E+07,-7.82E+07,-1.25E+06,2700,79652,-2990.41.11E+07,-1.02E+08,37559,2700,79661,-4113.4-1.04E+08,-2.63E+08,2.24E+06,2700,79766,-9997-6.46E+07,-2.03E+08,1.59E+07,2700,79778,-7510.6-4.57E+07,-5.91E+06,-1.85E+06,2700,79792,-32.481-5.56E+07,-1.85E+08,1.17E+07,2700,79864,-6913.8-2.64E+07,-2.77E+07,3.59E+05,2700,79870,-1143.7-2.23E+07,-1.45E+08,4.59E+06,2700,79923,-5421.2-7.91E+07,-2.28E+08,8.85E+06,2700,79929,-8547.31.64E+07,-8.52E+07,6.30E+05,2700,80109,-3492.2-4.43E+07,-1.72E+08,8.92E+06,2700,80172,-6410.11.72E+07,-6.78E+07,-1.95E+05,2700,80197,-2819.1-9.95E+07,-2.52E+08,3.82E+06,2700,80216,-9504.61.23E+07,-1.01E+08,2.93E+06,2700,80272,-4079-9.81E+06,-3.99E+07,1.15E+06,2700,80300,-1578.4-5.33E+07,-1.80E+08,1.51E+07,2700,80410,-7178-4.14E+07,-1.29E+07,-9.89E+05,2700,80418,-532.499.58E+06,-5.63E+07,2.35E+05,2700,80419,-2177.4-7.84E+07,-2.22E+08,1.01E+07,2700,80486,-8289.4-9.07E+07,-2.39E+08,7.10E+06,2700,80514,-8897.5-1.10E+08,-2.64E+08,1.12E+05,2700,80558,-9997.1-4.85E+07,-4.62E+06,44559,2700,80575,-33.0973.06E+06,-1.19E+08,1.29E+06,2700,80623,-4577.3-2.63E+07,-2.64E+07,4.66E+05,2700,80691,-1108.5-1.45E+07,-1.38E+08,3.88E+06,2700,80707,-5394.2-3.62E+07,-1.61E+08,9.53E+06,2700,80716,-6174.21.76E+07,-7.44E+07,1.43E+06,2700,80794,-3145.9-6.71E+07,-2.04E+08,1.03E+07,2700,80804,-7768.6-1.05E+08,-2.57E+08,2.87E+06,2700,80805,-9508.2-3.93E+07,-1.32E+07,2.07E+05,2700,80966,-532.871.37E+07,-9.75E+07,33583,2700,81057,-3902.8-8.27E+07,-2.21E+08,8.20E+06,2700,81079,-8288.7-5.38E+07,-1.85E+08,9.93E+06,2700,81125,-7210-3.02E+05,-4.97E+07,3.68E+06,2700,81162,-2174.4-1.77E+07,-3.44E+07,2.68E+06,2700,81239,-1437.31.29E+07,-6.69E+07,1.72E+06,2700,81251,-2762.86.04E+06,-1.20E+08,3.07E+05,2700,81342,-4560.2-1.15E+08,-2.66E+08,1.50E+06,2700,81348,-9997.3-4.69E+07,-4.54E+06,4.33E+05,2700,81357,-33.4091.51E+07,-8.66E+07,9.09E+05,2700,81368,-3371.9-1.10E+08,-2.62E+08,2.79E+06,2700,81390,-9509.4-7.03E+07,-2.10E+08,6.58E+06,2700,81390,-7796.8-9.75E+07,-2.43E+08,6.60E+06,2700,81391,-8861.1-3.01E+07,-1.58E+08,9.06E+06,2700,81403,-6168.2-7.72E+06,-1.35E+08,3.73E+06,2700,81480,-5262.6-3.73E+07,-1.42E+07,1.91E+06,2700,81513,-533.03-4.71E+07,-1.79E+08,7.72E+06,2700,81634,-6811.7-8.30E+07,-2.23E+08,5.99E+06,2700,81671,-8306.41.55E+07,-7.53E+07,2.19E+06,2700,81818,-2950.43.73E+05,-5.08E+07,4.50E+06,2700,81862,-1923.31.07E+07,-1.16E+08,3.09E+06,2700,81901,-4483.81.26E+07,-1.03E+08,1.28E+06,2700,81917,-3922.9-1.41E+07,-1.42E+08,5.43E+06,2700,81936,-56852.93E+06,-1.27E+08,3.94E+06,2700,81960,-5017.1-1.10E+08,-2.53E+08,3.16E+06,2700,81975,-9510.6-7.29E+07,-2.13E+08,7.14E+06,2700,81980,-7766.2-6.03E+07,-1.97E+08,7.92E+06,2700,82044,-7204.4-2.18E+07,-2.84E+07,3.61E+06,2700,82061,-1160.6-3.27E+07,-1.64E+08,5.62E+06,2700,82081,-6287.9-1.20E+08,-2.60E+08,9.89E+05,2700,82134,-9997.5-4.46E+07,-5.44E+06,1.11E+06,2700,82139,-33.426-9.63E+07,-2.35E+08,6.34E+06,2700,82269,-8900.8-8.17E+07,-2.18E+08,7.86E+06,2700,82298,-8290.11.50E+07,-8.55E+07,1.98E+06,2700,82325,-3390.49.57E+06,-6.57E+07,3.54E+06,2700,82401,-2737.48.81E+06,-1.17E+08,3.10E+06,2700,82411,-4723.1-6.96E+05,-4.98E+07,5.03E+06,2700,82425,-2118.9-2.29E+06,-1.35E+08,3.97E+06,2700,82442,-5259.4-6.59E+07,-1.99E+08,8.53E+06,2700,82472,-7536.5-4.81E+07,-1.81E+08,6.25E+06,2700,82484,-6845.6-8.75E+06,-3.90E+07,5.18E+06,2700,82552,-1538.6-1.55E+07,-1.50E+08,3.62E+06,2700,82552,-5785.3-1.13E+08,-2.53E+08,1.49E+06,2700,82561,-9511.9-3.59E+07,-1.31E+07,1.98E+06,2700,82608,-532.84-7.73E+07,-2.11E+08,6.93E+06,2700,82770,-8000.61.36E+07,-9.51E+07,2.97E+06,2700,82777,-3886.4-9.35E+07,-2.34E+08,5.43E+06,2700,82854,-8552.4-2.11E+07,-2.62E+07,4.53E+06,2700,82883,-1014.6-4.16E+07,-4.01E+06,1.68E+06,2700,82921,-33.175-1.24E+08,-2.66E+08,2.33E+05,2700,82920,-9997.61.37E+07,-7.49E+07,3.69E+06,2700,82967,-2993.6-2.17E+06,-5.07E+07,5.16E+06,2700,83001,-1966-6.34E+07,-1.97E+08,6.89E+06,2700,83014,-7506.11.92E+06,-1.33E+08,1.90E+06,2700,83065,-5013.7-3.00E+07,-1.64E+08,5.20E+06,2700,83101,-6188.5-1.20E+08,-2.60E+08,3.01E+06,2700,83146,-9512.6-3.26E+07,-1.24E+07,3.90E+06,2700,83156,-532.431.09E+07,-1.10E+08,2.22E+06,2700,83227,-4372.5-1.06E+08,-2.45E+08,3.19E+06,2700,83298,-8943.7-4.62E+07,-1.79E+08,5.89E+06,2700,83334,-6825.87.77E+06,-6.43E+07,6.75E+06,2700,83408,-2493.7-1.84E+07,-3.09E+07,5.59E+06,2700,83430,-1108-1.02E+07,-1.45E+08,3.70E+06,2700,83472,-5599.8-8.49E+07,-2.23E+08,4.28E+06,2700,83473,-8367.81.37E+07,-8.78E+07,4.24E+06,2700,83518,-3348.7-4.70E+06,-4.83E+07,6.53E+06,2700,83569,-1847.4-3.46E+07,-6.40E+06,2.28E+06,2700,83704,-32.692-2.76E+07,-1.77E+07,3.84E+06,2700,83704,-532.02-1.26E+08,-2.62E+08,4.74E+05,2700,83706,-9997.8-1.16E+08,-2.52E+08,2.38E+06,2700,83730,-9513.2-6.49E+07,-2.01E+08,4.96E+06,2700,83731,-7464.56.03E+06,-1.25E+08,2.25E+06,2700,83765,-4867.8-2.71E+07,-1.60E+08,4.57E+06,2700,83783,-6221.61.13E+07,-1.07E+08,2.29E+06,2700,83812,-4060.2-1.01E+08,-2.37E+08,3.00E+06,2700,83885,-8860.5-1.21E+07,-3.74E+07,7.05E+06,2700,83978,-1436.32.02E+06,-5.64E+07,8.31E+06,2700,84020,-2212.4-8.17E+07,-2.18E+08,3.31E+06,2700,84059,-8099.69.28E+06,-7.68E+07,5.41E+06,2700,84065,-2988.3-4.62E+07,-1.81E+08,3.86E+06,2700,84126,-68581.22E+07,-9.63E+07,3.73E+06,2700,84135,-3570.4-7.42E+06,-1.42E+08,3.24E+06,2700,84168,-5546.5-2.58E+07,-1.58E+07,4.32E+06,2700,84252,-531.6-1.19E+08,-2.54E+08,1.61E+06,2700,84315,-9513.6-6.33E+07,-1.99E+08,3.41E+06,2700,84448,-7505.81.07E+07,-1.09E+08,4.13E+06,2700,84463,-4213.2-2.97E+07,-5.38E+06,2.05E+06,2700,84486,-32.03-1.30E+08,-2.65E+08,7.44E+05,2700,84491,-9997.9-2.69E+07,-1.64E+08,3.23E+06,2700,84492,-6252.6-1.54E+07,-2.89E+07,6.53E+06,2700,84526,-1107.25.37E+06,-1.28E+08,4.46E+06,2700,84557,-4873.5-9.81E+07,-2.34E+08,2.94E+06,2700,84607,-8552.81.13E+07,-9.06E+07,5.30E+06,2700,84699,-3402.9-7.72E+07,-2.13E+08,2.60E+06,2700,84755,-7944.1-2.18E+07,-1.38E+07,3.87E+06,2700,84799,-531.1-5.22E+05,-5.76E+07,8.33E+06,2700,84799,-2175.5-1.21E+08,-2.56E+08,1.88E+06,2700,84899,-9513.7-8.61E+06,-4.22E+07,7.24E+06,2700,84918,-1576.4-6.37E+07,-2.00E+08,2.58E+06,2700,85007,-7472.3-4.64E+07,-1.83E+08,2.32E+06,2700,85010,-6916.61.16E+07,-1.01E+08,5.10E+06,2700,85063,-3886.9-5.54E+06,-1.43E+08,3.47E+06,2700,85064,-5404.18.63E+06,-1.19E+08,4.44E+06,2700,85072,-4491.96.36E+06,-7.45E+07,6.81E+06,2700,85145,-2791.7-8.74E+07,-2.22E+08,1.46E+06,2700,85164,-8290.5-2.57E+07,-1.64E+08,2.93E+06,2700,85191,-6125.1-1.04E+08,-2.39E+08,1.50E+06,2700,85191,-8902-2.30E+07,-4.98E+06,1.99E+06,2700,85268,-31.209-1.32E+08,-2.64E+08,3.21E+05,2700,85276,-9998.1-1.24E+07,-3.01E+07,6.38E+06,2700,85348,-1141.71.02E+07,-8.99E+07,6.84E+06,2700,85457,-3425.4-7.36E+07,-2.08E+08,1.74E+06,2700,85481,-7766-1.23E+08,-2.56E+08,1.49E+06,2700,85483,-9513.6-5.78E+07,-1.94E+08,2.25E+06,2700,85508,-71974.74E+06,-1.29E+08,3.28E+06,2700,85553,-4914.2-2.31E+06,-5.33E+07,8.01E+06,2700,85603,-2021.79.54E+06,-1.10E+08,4.55E+06,2700,85621,-4162.3-7.91E+06,-1.47E+08,2.78E+06,2700,85781,-5567-4.04E+07,-1.78E+08,2.40E+06,2700,85788,-6675-8.82E+07,-2.21E+08,1.80E+06,2700,85789,-8307.25.05E+06,-7.28E+07,8.61E+06,2700,85852,-2756.8-1.65E+07,-1.48E+07,3.52E+06,2700,85895,-529.71-2.40E+07,-1.63E+08,2.75E+06,2700,86004,-6089.6-1.76E+07,-5.84E+06,1.59E+06,2700,86051,-30.227-1.31E+08,-2.63E+08,2.78E+05,2700,86060,-9998.2-1.06E+08,-2.39E+08,5.30E+05,2700,86067,-8863.7-1.22E+08,-2.55E+08,7.68E+05,2700,86067,-9513.4-7.09E+07,-2.07E+08,2.64E+06,2700,86139,-7753.1-7.30E+06,-3.58E+07,6.97E+06,2700,86170,-1433.77.87E+06,-9.25E+07,6.64E+06,2700,86190,-3405.34.08E+06,-1.30E+08,4.11E+06,2700,86196,-4654.4-5.19E+07,-1.90E+08,2.58E+06,2700,86262,-7117.8-4.31E+05,-5.61E+07,8.35E+06,2700,86295,-2118.4-9.87E+06,-1.50E+08,2.89E+06,2700,86357,-5643.3-8.94E+07,-2.25E+08,1.57E+06,2700,86381,-8362.1-3.56E+07,-1.74E+08,1.81E+06,2700,86431,-6466-1.26E+07,-1.59E+07,3.94E+06,2700,86443,-528.938.26E+06,-1.10E+08,5.00E+06,2700,86525,-4028.13.52E+06,-7.44E+07,8.01E+06,2700,86592,-2794.5-1.10E+08,-2.43E+08,25154,2700,86601,-8974.1-1.27E+08,-2.58E+08,2.88E+05,2700,86651,-9513.3-6.98E+06,-2.87E+07,6.11E+06,2700,86718,-1104.3-6.94E+07,-2.05E+08,2.18E+06,2700,86783,-7504.1-2.30E+07,-1.62E+08,2.77E+06,2700,86819,-5995.1-1.27E+07,-5.68E+06,1.99E+06,2700,86834,-29.136-1.33E+08,-2.63E+08,1.44E+05,2700,86845,-9998.4-6.12E+06,-1.45E+08,4.15E+06,2700,86879,-5389.3-9.39E+07,-2.30E+08,1.17E+06,2700,86943,-8551.86.05E+06,-1.25E+08,4.28E+06,2700,86945,-4646.16.18E+06,-9.51E+07,6.37E+06,2700,86979,-3484.4-8.48E+06,-1.42E+07,3.56E+06,2700,86991,-528.084.67E+05,-6.00E+07,8.05E+06,2700,86991,-2172.57.52E+06,-1.10E+08,5.31E+06,2700,87094,-4095.6-4.15E+07,-1.78E+08,1.74E+06,2700,87105,-6533.1-2.44E+06,-4.62E+07,7.88E+06,2700,87109,-1573.5-1.24E+08,-2.56E+08,-15550,2700,87236,-9513.1-5.54E+07,-1.92E+08,2.12E+06,2700,87416,-7173.6-8.67E+07,-2.21E+08,4.19E+05,2700,87499,-8288.96.28E+06,-1.20E+08,4.09E+06,2700,87524,-4470.6-1.06E+08,-2.39E+08,3.57E+05,2700,87527,-8900.5-4.09E+06,-3.08E+07,5.98E+06,2700,87540,-1138.61.29E+06,-6.49E+07,8.45E+06,2700,87543,-2349-1.26E+06,-1.38E+08,3.64E+06,2700,87554,-5073.53.50E+06,-8.32E+07,7.51E+06,2700,87609,-3004.3-7.08E+06,-5.46E+06,1.64E+06,2700,87616,-27.984-1.34E+08,-2.64E+08,-1.98E+05,2700,87629,-9998.5-2.21E+07,-1.61E+08,3.55E+06,2700,87635,-6074.7-6.93E+07,-2.06E+08,2.76E+06,2700,87816,-7763.9-1.24E+08,-2.56E+08,3.70E+05,2700,87819,-9512.65.28E+06,-1.05E+08,5.66E+06,2700,87840,-3954.91.90E+06,-7.27E+07,8.02E+06,2700,88045,-2635.6-3.99E+05,-5.32E+07,7.82E+06,2700,88047,-2065.7-3.82E+06,-1.50E+07,2.80E+06,2700,88087,-526.43-9.98E+06,-1.48E+08,2.51E+06,2700,88114,-5563.4-4.38E+07,-1.83E+08,2.59E+06,2700,88122,-6672.2-9.03E+07,-2.24E+08,1.63E+06,2700,88124,-83053.10E+06,-9.14E+07,7.89E+06,2700,88285,-3470.7-2.50E+07,-1.65E+08,2.77E+06,2700,88337,-6086.6-8.65E+05,-3.35E+07,5.71E+06,2700,88344,-1302.9-5.62E+05,-6.46E+06,1.53E+06,2700,88399,-26.801-1.08E+08,-2.41E+08,1.03E+06,2700,88402,-8861.8-1.23E+08,-2.55E+08,7.54E+05,2700,88402,-9512.2-1.33E+08,-2.64E+08,-3.13E+05,2700,88413,-9998.6-7.47E+07,-2.11E+08,2.30E+06,2700,88473,-7750.13.16E+06,-1.06E+08,6.65E+06,2700,88477,-4046.51.23E+06,-1.28E+08,4.15E+06,2700,88530,-4650.71.51E+06,-6.39E+07,8.19E+06,2700,88532,-2335.72.09E+06,-7.72E+07,8.41E+06,2700,88586,-2886-5.56E+07,-1.92E+08,2.06E+06,2700,88595,-7114.91.21E+05,-1.68E+07,3.40E+06,2700,88635,-525.48-1.15E+07,-1.51E+08,1.39E+06,2700,88690,-5640.2-9.10E+07,-2.26E+08,1.07E+06,2700,88715,-8359.6-3.70E+07,-1.74E+08,1.71E+06,2700,88764,-6462.91.38E+06,-3.06E+07,5.22E+06,2700,88909,-1070.1-1.12E+08,-2.45E+08,2.01E+05,2700,88935,-8971.92.02E+06,-9.53E+07,8.09E+06,2700,88945,-3483.91.02E+06,-5.05E+07,7.27E+06,2700,88954,-1976.6-1.28E+08,-2.60E+08,-3.21E+05,2700,88986,-9511.81.48E+06,-1.14E+08,6.05E+06,2700,89073,-4169-7.16E+07,-2.07E+08,2.21E+06,2700,89117,-7500.9-2.46E+07,-1.64E+08,2.18E+06,2700,89151,-5992.12.76E+06,-1.36E+07,2.80E+06,2700,89183,-524.54-1.35E+08,-2.64E+08,2.88E+05,2700,89196,-9998.8-7.95E+06,-1.48E+08,2.32E+06,2700,89212,-5386.5-9.53E+07,-2.29E+08,6.17E+05,2700,89277,-8549.2-4.60E+07,-1.82E+08,1.83E+06,2700,89437,-6529.92.26E+06,-6.28E+07,7.70E+06,2700,89453,-2316.81.89E+06,-8.22E+07,7.19E+06,2700,89481,-29192.23E+06,-4.54E+07,6.56E+06,2700,89517,-1717.4-1.26E+08,-2.56E+08,1.07E+06,2700,89569,-9511.3-8.80E+05,-1.32E+08,4.29E+06,2700,89576,-4833.38.14E+05,-1.02E+08,6.17E+06,2700,89614,-3685-6.56E+07,-2.03E+08,2.53E+06,2700,89688,-7413.83.42E+06,-3.07E+07,4.71E+06,2700,89731,-1137.979089,-1.18E+08,5.73E+06,2700,89797,-4226.1-8.60E+07,-2.21E+08,1.90E+06,2700,89832,-8286-1.08E+08,-2.39E+08,1.53E+06,2700,89860,-8898.45.37E+06,-5.92E+06,1.68E+06,2700,89965,-24.439-3.54E+07,-1.74E+08,2.28E+06,2700,89971,-6407.2-1.35E+08,-2.63E+08,2.78E+05,2700,89980,-9998.9-2.04E+07,-1.60E+08,3.08E+06,2700,90044,-5866-6.79E+06,-1.44E+08,4.00E+06,2700,90086,-5256.73.47E+06,-5.07E+07,6.53E+06,2700,90122,-1854.3-7.59E+07,-2.11E+08,1.95E+06,2700,90149,-7760.4-1.26E+08,-2.56E+08,1.30E+06,2700,90153,-9510.42.06E+05,-1.09E+08,5.15E+06,2700,90175,-3796.4-1.16E+06,-1.27E+08,4.97E+06,2700,90206,-46262.07E+06,-7.32E+07,6.84E+06,2700,90218,-2664-5.63E+07,-1.93E+08,2.01E+06,2700,90220,-7190.36.82E+06,-1.64E+07,2.68E+06,2700,90279,-523.195.25E+06,-3.43E+07,4.72E+06,2700,90304,-1346.1-3.80E+07,-1.77E+08,2.20E+06,2700,90454,-6665.2-9.21E+07,-2.25E+08,2.49E+06,2700,90456,-83028.33E+05,-9.48E+07,5.97E+06,2700,90488,-3319.5-1.63E+07,-1.54E+08,4.23E+06,2700,90568,-5634-7.37E+05,-1.15E+08,6.25E+06,2700,90630,-4142.1-5.05E+06,-1.36E+08,5.47E+06,2700,90670,-5071.64.74E+06,-4.64E+07,5.43E+06,2700,90672,-1742.9-1.12E+08,-2.41E+08,1.57E+06,2700,90735,-8858.9-1.28E+08,-2.57E+08,5.40E+05,2700,90736,-9509.41.02E+07,-6.47E+06,1.86E+06,2700,90748,-23.162-1.35E+08,-2.64E+08,1.74E+05,2700,90763,-9999-5.85E+07,-1.97E+08,2.53E+06,2700,90795,-7152.3-7.49E+07,-2.10E+08,2.58E+06,2700,90807,-7746.13.25E+06,-6.36E+07,5.39E+06,2700,90818,-2283.16.96E+06,-3.23E+07,4.37E+06,2700,90828,-1205.71.67E+06,-8.13E+07,6.94E+06,2700,90896,-2877.8-1.12E+07,-1.45E+08,4.44E+06,2700,91102,-5426-2.55E+07,-1.65E+08,2.50E+06,2700,91106,-5983.8-2.73E+05,-1.06E+08,7.53E+06,2700,91136,-3849.1-9.09E+07,-2.24E+08,2.85E+06,2700,91164,-8298.55.35E+06,-4.88E+07,4.10E+06,2700,91263,-1787.7-4.72E+06,-1.31E+08,6.33E+06,2700,91272,-4817.5-4.76E+07,-1.88E+08,2.56E+06,2700,91289,-6820.7-1.27E+08,-2.55E+08,6.29E+05,2700,91319,-9508.41.26E+06,-9.14E+07,6.20E+06,2700,91326,-3297.61.05E+07,-1.48E+07,2.29E+06,2700,91375,-521.06-7.09E+07,-2.07E+08,3.07E+06,2700,91387,-7662.11.33E+07,-6.69E+06,7.34E+05,2700,91531,-21.848-1.38E+08,-2.63E+08,6.47E+05,2700,91547,-9999.1-1.67E+06,-1.16E+08,7.59E+06,2700,91557,-4253.3-1.50E+07,-1.52E+08,3.18E+06,2700,91652,-5322.78.34E+06,-3.58E+07,2.44E+06,2700,91703,-1287.3-1.08E+08,-2.38E+08,2.95E+06,2700,91715,-8740.93.09E+06,-7.42E+07,5.75E+06,2700,91789,-2758.1-3.45E+07,-1.78E+08,2.59E+06,2700,91861,-6392.5-5.91E+06,-1.33E+08,5.00E+06,2700,91871,-4764.55.26E+06,-5.73E+07,4.59E+06,2700,91875,-2053.8-8.35E+07,-2.17E+08,3.66E+06,2700,91882,-7972.5-5.95E+07,-1.98E+08,3.59E+06,2700,91909,-7399.42.46E+06,-8.44E+07,5.43E+06,2700,91926,-3341.61.26E+07,-1.66E+07,2.09E+06,2700,91958,-520.07-1.30E+08,-2.57E+08,1.11E+06,2700,91972,-9507.4-6.64E+05,-1.06E+08,6.72E+06,2700,92004,-3902.51.47E+07,-7.65E+06,2.44E+05,2700,92314,-20.609-1.40E+08,-2.65E+08,3.34E+05,2700,92330,-9999.21.38E+07,-1.47E+07,-3.13E+05,2700,92471,-519.271.15E+07,-2.98E+07,9.98E+05,2700,92472,-1030.78.50E+06,-4.55E+07,3.56E+06,2700,92473,-1541.64.45E+06,-6.88E+07,6.15E+06,2700,92475,-2563.6-2.29E+05,-9.85E+07,4.03E+06,2700,92476,-3585.5-5.42E+06,-1.31E+08,1.90E+06,2700,92477,-4608.1-1.21E+07,-1.51E+08,3.33E+06,2700,92478,-5321.5-2.41E+07,-1.69E+08,4.63E+06,2700,92479,-6034.8-4.54E+07,-1.87E+08,5.54E+06,2700,92481,-6748.1-6.96E+07,-2.07E+08,4.90E+06,2700,92482,-7461.1-9.61E+07,-2.27E+08,3.83E+06,2700,92484,-8483.8-1.18E+08,-2.45E+08,2.69E+06,2700,92485,-8995.2-1.34E+08,-2.59E+08,2.14E+06,2700,92485,-9506.6-1.07E+08,-2.36E+08,2.26E+06,2700,92981,-8738.71.38E+07,-1.92E+07,-5.26E+05,2700,93013,-774.13-8.43E+07,-2.19E+08,4.63E+06,2700,93063,-7971.41.45E+07,-7.17E+06,-1.10E+06,2700,93097,-19.501-1.41E+08,-2.61E+08,1.26E+06,2700,93112,-9999.3-3.30E+07,-1.78E+08,7.12E+06,2700,93127,-6390.1-1.27E+08,-2.51E+08,2.70E+06,2700,93204,-9249.9-1.34E+07,-1.54E+08,4.48E+06,2700,93296,-5320.1-5.51E+07,-1.97E+08,6.52E+06,2700,93315,-7102.81.11E+07,-3.97E+07,2.27E+06,2700,93322,-1284.22.61E+06,-8.49E+07,2.41E+06,2700,93398,-3072.8-2.80E+06,-1.21E+08,3.13E+05,2700,93647,-4095.7-1.43E+08,-2.60E+08,1.59E+06,2700,93895,-9999.41.37E+07,-1.53E+07,-7.19E+05,2700,93922,-576.13-1.05E+08,-2.35E+08,5.64E+06,2700,93942,-8626.1-1.31E+08,-2.52E+08,4.26E+06,2700,94286,-9327.4-7.59E+07,-2.10E+08,6.80E+06,2700,94396,-7577.8-3.70E+07,-1.78E+08,7.89E+06,2700,94406,-6436.11.27E+07,-9.12E+06,-6.11E+05,2700,94664,-17.393-1.49E+08,-2.60E+08,2.84E+06,2700,94678,-9999.5-5.10E+06,-1.40E+08,6.38E+06,2700,94688,-5053.23.04E+06,-1.00E+08,-1.40E+06,2700,94754,-3285.8-1.04E+08,-2.31E+08,7.23E+06,2700,94765,-8659.11.15E+07,-2.54E+07,-1.16E+06,2700,94800,-962.487.49E+06,-6.09E+07,-4.20E+06,2700,94801,-1918-1.29E+08,-2.45E+08,5.64E+06,2700,95459,-9100.5-7.69E+07,-2.08E+08,8.16E+06,2700,95845,-7731.9-2.36E+07,-1.62E+08,1.02E+07,2700,96063,-6050.78.92E+06,-4.74E+07,-5.31E+06,2700,96148,-1439.11.04E+07,-1.44E+07,-9.66E+05,2700,96230,-15.477-1.50E+08,-2.55E+08,4.04E+06,2700,96242,-9999.76.27E+06,-1.07E+08,4.99E+06,2700,96342,-4229.1-1.20E+08,-2.36E+08,5.27E+06,2700,96791,-8736.3-6.03E+07,-1.91E+08,7.83E+06,2700,97534,-7094.4-7.61E+06,-1.38E+08,5.75E+06,2700,97662,-5362.26.47E+06,-3.08E+07,-6.51E+06,2700,97795,-14.912-1.51E+08,-2.53E+08,5.00E+06,2700,97807,-9999.8-1.12E+08,-2.28E+08,5.14E+06,2700,98411,-8477.79.13E+06,-6.11E+07,2.18E+06,2700,98585,-2568.24.12E+06,-2.63E+07,-4.19E+05,2700,99364,-13.351-1.47E+08,-2.46E+08,2.08E+06,2700,99371,-9999.9-4.12E+07,-1.58E+08,1.73E+06,2700,1.00E+05,-6400.1-1.13E+08,-2.11E+08,-1.97E+06,2700,1.00E+05,-8326.5-1.39E+08,-2.16E+08,-5.06E+06,2700,1.03E+05,-10000-7.76E+07,-1.70E+08,-7.81E+05,2700,1.03E+05,-7500-4.40E+06,-8.42E+07,6.16E+06,2700,1.03E+05,-50001.29E+07,-1.05E+07,8.64E+06,2700,1.03E+05,-1.1425